Mo N  Mo Ni N  Mo N  Mo N 
 1.0000000000000000
     8.4000000000000004    0.0000000000000000    0.0000000000000005
     0.0000000000000013    8.0000000000000000    0.0000000000000005
     0.0000000000000000    0.0000000000000000   26.3000000000000043
 Mo  N   Mo  Ni  N   Mo  N   Mo  N  
   8   4   7   1   4   8   4   8   4
Selective dynamics
Cartesian
  0.0000000000000000  0.0000000000000000 12.1000000000000014   F   F   F
  2.1000000000000001  0.0000000000000000 10.0000000000000000   F   F   F
  0.0000000000000010  6.0000000000000000 10.0000000000000000   F   F   F
  2.1000000000000010  6.0000000000000000 12.1000000000000014   F   F   F
  0.0000000000000006  4.0000000000000000 12.1000000000000014   F   F   F
  2.1000000000000005  4.0000000000000000 10.0000000000000000   F   F   F
  0.0000000000000003  2.0000000000000000 10.0000000000000000   F   F   F
  2.1000000000000005  2.0000000000000000 12.1000000000000014   F   F   F
  0.0000000000000000  0.0000000000000000 10.0000000000000000   F   F   F
  2.1000000000000010  6.0000000000000000 10.0000000000000000   F   F   F
  2.1000000000000005  4.0000000000000000 12.1000000000000014   F   F   F
  0.0000000000000003  2.0000000000000000 12.1000000000000014   F   F   F
  0.0000000000000000  0.0000000000000000 16.3000000000000043   T   T   T
  2.1000000000000001  0.0000000000000000 14.1999999999999993   T   T   T
  0.0000000000000010  6.0000000000000000 14.1999999999999993   T   T   T
  2.1000000000000010  6.0000000000000000 16.3000000000000043   T   T   T
  0.0000000000000006  4.0000000000000000 16.3000000000000043   T   T   T
  2.1000000000000005  4.0000000000000000 14.1999999999999993   T   T   T
  0.0000000000000003  2.0000000000000000 14.1999999999999993   T   T   T
  2.1000000000000005  2.0000000000000000 16.3000000000000043   T   T   T
  0.0000000000000000  0.0000000000000000 14.1999999999999993   T   T   T
  2.1000000000000010  6.0000000000000000 14.1999999999999993   T   T   T
  2.1000000000000005  4.0000000000000000 16.3000000000000043   T   T   T
  0.0000000000000003  2.0000000000000000 16.3000000000000043   T   T   T
  4.2000000000000002  0.0000000000000000 12.1000000000000014   F   F   F
  6.3000000000000007  0.0000000000000000 10.0000000000000000   F   F   F
  4.2000000000000011  6.0000000000000000 10.0000000000000000   F   F   F
  6.3000000000000007  6.0000000000000000 12.1000000000000014   F   F   F
  4.2000000000000011  4.0000000000000000 12.1000000000000014   F   F   F
  6.3000000000000007  4.0000000000000000 10.0000000000000000   F   F   F
  4.2000000000000002  2.0000000000000000 10.0000000000000000   F   F   F
  6.3000000000000007  2.0000000000000000 12.1000000000000014   F   F   F
  4.2000000000000002  0.0000000000000000 10.0000000000000000   F   F   F
  6.3000000000000007  6.0000000000000000 10.0000000000000000   F   F   F
  6.3000000000000007  4.0000000000000000 12.1000000000000014   F   F   F
  4.2000000000000002  2.0000000000000000 12.1000000000000014   F   F   F
  4.2000000000000002  0.0000000000000000 16.3000000000000043   T   T   T
  6.3000000000000007  0.0000000000000000 14.1999999999999993   T   T   T
  4.2000000000000011  6.0000000000000000 14.1999999999999993   T   T   T
  6.3000000000000007  6.0000000000000000 16.3000000000000043   T   T   T
  4.2000000000000011  4.0000000000000000 16.3000000000000043   T   T   T
  6.3000000000000007  4.0000000000000000 14.1999999999999993   T   T   T
  4.2000000000000002  2.0000000000000000 14.1999999999999993   T   T   T
  6.3000000000000007  2.0000000000000000 16.3000000000000043   T   T   T
  4.2000000000000002  0.0000000000000000 14.1999999999999993   T   T   T
  6.3000000000000007  6.0000000000000000 14.1999999999999993   T   T   T
  6.3000000000000007  4.0000000000000000 16.3000000000000043   T   T   T
  4.2000000000000002  2.0000000000000000 16.3000000000000043   T   T   T
