Mo B  Mo B  Mo B  Mo B  Mo B  Mo B  Mo B  Mo B  Mo B  Mo B  Mo B  Mo B  Mo B  Mo B  Mo B  Mo B  Mo B  Mo B  Mo B  Mo Pt Mo B  Mo B  Mo B  Mo B  Mo B  Mo B  Mo B  Mo B  Mo B  Mo B  Mo B  Mo B  Mo B  Mo B  Mo B  Mo B  Mo B 
 1.0000000000000000
    13.1733993335053796    0.0000000000000000    0.0000000000000000
     0.0000000000000000   50.9099999999999966    0.0000000000000000
     0.0000000000000000    0.0000000000000000   23.6844829445448077
 Mo  B   Mo  B   Mo  B   Mo  B   Mo  B   Mo  B   Mo  B   Mo  B   Mo  B   Mo  B   Mo  B   Mo  B   Mo  B   Mo  B   Mo  B   Mo  B   Mo  B   Mo  B   Mo  B   Mo  Pt  Mo  B   Mo  B   Mo  B   Mo  B   Mo  B   Mo  B   Mo  B   Mo  B   Mo  B   Mo  B   Mo  B   Mo  B   Mo  B   Mo  B   Mo  B   Mo  B   Mo  B  
   8   8   8   8   8   8   8   8   8   8   8   8   8   8   8   8   8   8   8   8   8   8   8   8   8   8   8   8   8   8   8   8   8   8   8   8   8   8   5   1   2   8   8   8   8   8   8   8   8   8   8   8   8   8   8   8   8   8   8   8   8   8   8   8   8   8   8   8   8   8   8   8   8   8
Selective dynamics
Cartesian
  1.0977832777921150  7.5855899999999998  9.0977832777921144   F   F   F
  2.1955665555842301 11.8280899999999978  8.0000000000000000   F   F   F
  0.0000000000000000 13.6269100000000005  8.0000000000000000   F   F   F
  1.0977832777921150  0.8994099999999987  9.0977832777921144   F   F   F
  3.2933498333763458 16.0705899999999993  9.0977832777921144   F   F   F
  3.2933498333763458  9.3844099999999990  9.0977832777921144   F   F   F
  2.1955665555842301  5.1419100000000002  8.0000000000000000   F   F   F
  0.0000000000000000  3.3430899999999988  8.0000000000000000   F   F   F
  1.0977832777921150 10.2159399999999998  9.0977832777921144   F   F   F
  2.1955665555842301 14.4584399999999995  8.0000000000000000   F   F   F
  0.0000000000000000 10.9965600000000023  8.0000000000000000   F   F   F
  1.0977832777921150 15.2390599999999949  9.0977832777921144   F   F   F
  3.2933498333763458  1.7309399999999995  9.0977832777921144   F   F   F
  3.2933498333763458  6.7540599999999982  9.0977832777921144   F   F   F
  2.1955665555842301  2.5115599999999985  8.0000000000000000   F   F   F
  0.0000000000000000  5.9734399999999992  8.0000000000000000   F   F   F
  3.2933498333763458  7.5855899999999998 11.2933498333763467   F   F   F
  0.0000000000000000 11.8280899999999978 10.1955665555842305   F   F   F
  2.1955665555842301 13.6269100000000005 10.1955665555842305   F   F   F
  3.2933498333763458  0.8994099999999985 11.2933498333763467   F   F   F
  1.0977832777921150 16.0705899999999993 11.2933498333763449   F   F   F
  1.0977832777921150  9.3844099999999990 11.2933498333763449   F   F   F
  0.0000000000000000  5.1419100000000002 10.1955665555842305   F   F   F
  2.1955665555842301  3.3430899999999988 10.1955665555842305   F   F   F
  3.2933498333763458 10.2159399999999998 11.2933498333763467   F   F   F
  0.0000000000000000 14.4584399999999995 10.1955665555842305   F   F   F
  2.1955665555842301 10.9965600000000023 10.1955665555842305   F   F   F
  3.2933498333763458 15.2390599999999949 11.2933498333763467   F   F   F
  1.0977832777921150  1.7309399999999993 11.2933498333763449   F   F   F
  1.0977832777921150  6.7540599999999982 11.2933498333763449   F   F   F
  0.0000000000000000  2.5115599999999985 10.1955665555842305   F   F   F
  2.1955665555842301  5.9734399999999992 10.1955665555842305   F   F   F
  1.0977832777921150  7.5855899999999998 13.4889163889605754   T   T   T
  2.1955665555842310 11.8280899999999978 12.3911331111684611   T   T   T
  0.0000000000000000 13.6269100000000005 12.3911331111684611   T   T   T
  1.0977832777921150  0.8994099999999984 13.4889163889605754   T   T   T
  3.2933498333763462 16.0705899999999993 13.4889163889605754   T   T   T
  3.2933498333763462  9.3844099999999990 13.4889163889605754   T   T   T
  2.1955665555842310  5.1419100000000002 12.3911331111684611   T   T   T
  0.0000000000000000  3.3430899999999983 12.3911331111684611   T   T   T
  1.0977832777921150 10.2159399999999998 13.4889163889605754   T   T   T
  2.1955665555842310 14.4584399999999995 12.3911331111684611   T   T   T
  0.0000000000000000 10.9965600000000023 12.3911331111684611   T   T   T
  1.0977832777921150 15.2390599999999949 13.4889163889605754   T   T   T
  3.2933498333763462  1.7309399999999990 13.4889163889605754   T   T   T
  3.2933498333763462  6.7540599999999982 13.4889163889605754   T   T   T
  2.1955665555842310  2.5115599999999980 12.3911331111684611   T   T   T
  0.0000000000000000  5.9734399999999992 12.3911331111684611   T   T   T
  3.2933498333763462  7.5855899999999989 15.6844829445448077   T   T   T
  0.0000000000000000 11.8280899999999978 14.5866996667526916   T   T   T
  2.1955665555842310 13.6269100000000005 14.5866996667526916   T   T   T
  3.2933498333763462  0.8994099999999982 15.6844829445448077   T   T   T
  1.0977832777921150 16.0705899999999993 15.6844829445448042   T   T   T
  1.0977832777921150  9.3844099999999990 15.6844829445448042   T   T   T
  0.0000000000000000  5.1419099999999993 14.5866996667526916   T   T   T
  2.1955665555842310  3.3430899999999983 14.5866996667526916   T   T   T
  3.2933498333763462 10.2159399999999998 15.6844829445448077   T   T   T
  0.0000000000000000 14.4584399999999995 14.5866996667526916   T   T   T
  2.1955665555842310 10.9965600000000023 14.5866996667526916   T   T   T
  3.2933498333763462 15.2390599999999949 15.6844829445448077   T   T   T
  1.0977832777921150  1.7309399999999988 15.6844829445448042   T   T   T
  1.0977832777921150  6.7540599999999973 15.6844829445448042   T   T   T
  0.0000000000000000  2.5115599999999980 14.5866996667526916   T   T   T
  2.1955665555842310  5.9734399999999983 14.5866996667526916   T   T   T
  1.0977832777921150 24.5555899999999987  9.0977832777921144   F   F   F
  2.1955665555842301 28.7980899999999949  8.0000000000000000   F   F   F
  0.0000000000000000 30.5969100000000012  8.0000000000000000   F   F   F
  1.0977832777921150 17.8694099999999985  9.0977832777921144   F   F   F
  3.2933498333763458 33.0405899999999946  9.0977832777921144   F   F   F
  3.2933498333763458 26.3544099999999979  9.0977832777921144   F   F   F
  2.1955665555842301 22.1119099999999982  8.0000000000000000   F   F   F
  0.0000000000000000 20.3130899999999990  8.0000000000000000   F   F   F
  1.0977832777921150 27.1859399999999987  9.0977832777921144   F   F   F
  2.1955665555842301 31.4284399999999984  8.0000000000000000   F   F   F
  0.0000000000000000 27.9665600000000012  8.0000000000000000   F   F   F
  1.0977832777921150 32.2090599999999938  9.0977832777921144   F   F   F
  3.2933498333763458 18.7009399999999992  9.0977832777921144   F   F   F
  3.2933498333763458 23.7240599999999979  9.0977832777921144   F   F   F
  2.1955665555842301 19.4815599999999982  8.0000000000000000   F   F   F
  0.0000000000000000 22.9434399999999989  8.0000000000000000   F   F   F
  3.2933498333763458 24.5555899999999987 11.2933498333763467   F   F   F
  0.0000000000000000 28.7980899999999949 10.1955665555842305   F   F   F
  2.1955665555842301 30.5969100000000012 10.1955665555842305   F   F   F
  3.2933498333763458 17.8694099999999985 11.2933498333763467   F   F   F
  1.0977832777921150 33.0405899999999946 11.2933498333763449   F   F   F
  1.0977832777921150 26.3544099999999979 11.2933498333763449   F   F   F
  0.0000000000000000 22.1119099999999982 10.1955665555842305   F   F   F
  2.1955665555842301 20.3130899999999990 10.1955665555842305   F   F   F
  3.2933498333763458 27.1859399999999987 11.2933498333763467   F   F   F
  0.0000000000000000 31.4284399999999984 10.1955665555842305   F   F   F
  2.1955665555842301 27.9665600000000012 10.1955665555842305   F   F   F
  3.2933498333763458 32.2090599999999938 11.2933498333763467   F   F   F
  1.0977832777921150 18.7009399999999992 11.2933498333763449   F   F   F
  1.0977832777921150 23.7240599999999979 11.2933498333763449   F   F   F
  0.0000000000000000 19.4815599999999982 10.1955665555842305   F   F   F
  2.1955665555842301 22.9434399999999989 10.1955665555842305   F   F   F
  1.0977832777921150 24.5555899999999987 13.4889163889605754   T   T   T
  2.1955665555842310 28.7980899999999949 12.3911331111684611   T   T   T
  0.0000000000000000 30.5969100000000012 12.3911331111684611   T   T   T
  1.0977832777921150 17.8694099999999985 13.4889163889605754   T   T   T
  3.2933498333763462 33.0405899999999946 13.4889163889605754   T   T   T
  3.2933498333763462 26.3544099999999979 13.4889163889605754   T   T   T
  2.1955665555842310 22.1119099999999982 12.3911331111684611   T   T   T
  0.0000000000000000 20.3130899999999954 12.3911331111684611   T   T   T
  1.0977832777921150 27.1859399999999987 13.4889163889605754   T   T   T
  2.1955665555842310 31.4284399999999984 12.3911331111684611   T   T   T
  0.0000000000000000 27.9665600000000012 12.3911331111684611   T   T   T
  1.0977832777921150 32.2090599999999938 13.4889163889605754   T   T   T
  3.2933498333763462 18.7009399999999992 13.4889163889605754   T   T   T
  3.2933498333763462 23.7240599999999979 13.4889163889605754   T   T   T
  2.1955665555842310 19.4815599999999982 12.3911331111684611   T   T   T
  0.0000000000000000 22.9434399999999989 12.3911331111684611   T   T   T
  3.2933498333763462 24.5555899999999987 15.6844829445448077   T   T   T
  0.0000000000000000 28.7980899999999949 14.5866996667526916   T   T   T
  2.1955665555842310 30.5969100000000012 14.5866996667526916   T   T   T
  3.2933498333763462 17.8694099999999985 15.6844829445448077   T   T   T
  1.0977832777921150 33.0405899999999946 15.6844829445448042   T   T   T
  1.0977832777921150 26.3544099999999979 15.6844829445448042   T   T   T
  0.0000000000000000 22.1119099999999982 14.5866996667526916   T   T   T
  2.1955665555842310 20.3130899999999954 14.5866996667526916   T   T   T
  3.2933498333763462 27.1859399999999987 15.6844829445448077   T   T   T
  0.0000000000000000 31.4284399999999984 14.5866996667526916   T   T   T
  2.1955665555842310 27.9665600000000012 14.5866996667526916   T   T   T
  3.2933498333763462 32.2090599999999938 15.6844829445448077   T   T   T
  1.0977832777921150 18.7009399999999992 15.6844829445448042   T   T   T
  1.0977832777921150 23.7240599999999944 15.6844829445448042   T   T   T
  0.0000000000000000 19.4815599999999982 14.5866996667526916   T   T   T
  2.1955665555842310 22.9434399999999954 14.5866996667526916   T   T   T
  1.0977832777921150 41.5255899999999940  9.0977832777921144   F   F   F
  2.1955665555842301 45.7680899999999937  8.0000000000000000   F   F   F
  0.0000000000000000 47.5669100000000000  8.0000000000000000   F   F   F
  1.0977832777921150 34.8394099999999938  9.0977832777921144   F   F   F
  3.2933498333763458 50.0105899999999934  9.0977832777921144   F   F   F
  3.2933498333763458 43.3244100000000003  9.0977832777921144   F   F   F
  2.1955665555842301 39.0819100000000006  8.0000000000000000   F   F   F
  0.0000000000000000 37.2830899999999943  8.0000000000000000   F   F   F
  1.0977832777921150 44.1559400000000011  9.0977832777921144   F   F   F
  2.1955665555842301 48.3984399999999937  8.0000000000000000   F   F   F
  0.0000000000000000 44.9365600000000001  8.0000000000000000   F   F   F
  1.0977832777921150 49.1790599999999927  9.0977832777921144   F   F   F
  3.2933498333763458 35.6709399999999945  9.0977832777921144   F   F   F
  3.2933498333763458 40.6940599999999932  9.0977832777921144   F   F   F
  2.1955665555842301 36.4515599999999935  8.0000000000000000   F   F   F
  0.0000000000000000 39.9134399999999943  8.0000000000000000   F   F   F
  3.2933498333763458 41.5255899999999940 11.2933498333763467   F   F   F
  0.0000000000000000 45.7680899999999937 10.1955665555842305   F   F   F
  2.1955665555842301 47.5669100000000000 10.1955665555842305   F   F   F
  3.2933498333763458 34.8394099999999938 11.2933498333763467   F   F   F
  1.0977832777921150 50.0105899999999934 11.2933498333763449   F   F   F
  1.0977832777921150 43.3244100000000003 11.2933498333763449   F   F   F
  0.0000000000000000 39.0819100000000006 10.1955665555842305   F   F   F
  2.1955665555842301 37.2830899999999943 10.1955665555842305   F   F   F
  3.2933498333763458 44.1559400000000011 11.2933498333763467   F   F   F
  0.0000000000000000 48.3984399999999937 10.1955665555842305   F   F   F
  2.1955665555842301 44.9365600000000001 10.1955665555842305   F   F   F
  3.2933498333763458 49.1790599999999927 11.2933498333763467   F   F   F
  1.0977832777921150 35.6709399999999945 11.2933498333763449   F   F   F
  1.0977832777921150 40.6940599999999932 11.2933498333763449   F   F   F
  0.0000000000000000 36.4515599999999935 10.1955665555842305   F   F   F
  2.1955665555842301 39.9134399999999943 10.1955665555842305   F   F   F
  1.0977832777921150 41.5255899999999940 13.4889163889605754   T   T   T
  2.1955665555842310 45.7680899999999937 12.3911331111684611   T   T   T
  0.0000000000000000 47.5669100000000000 12.3911331111684611   T   T   T
  1.0977832777921150 34.8394099999999938 13.4889163889605754   T   T   T
  3.2933498333763462 50.0105899999999934 13.4889163889605754   T   T   T
  3.2933498333763462 43.3244100000000003 13.4889163889605754   T   T   T
  2.1955665555842310 39.0819100000000006 12.3911331111684611   T   T   T
  0.0000000000000000 37.2830899999999943 12.3911331111684611   T   T   T
  1.0977832777921150 44.1559400000000011 13.4889163889605754   T   T   T
  2.1955665555842310 48.3984399999999937 12.3911331111684611   T   T   T
  0.0000000000000000 44.9365600000000001 12.3911331111684611   T   T   T
  1.0977832777921150 49.1790599999999927 13.4889163889605754   T   T   T
  3.2933498333763462 35.6709399999999945 13.4889163889605754   T   T   T
  3.2933498333763462 40.6940599999999932 13.4889163889605754   T   T   T
  2.1955665555842310 36.4515599999999935 12.3911331111684611   T   T   T
  0.0000000000000000 39.9134399999999943 12.3911331111684611   T   T   T
  3.2933498333763462 41.5255899999999940 15.6844829445448077   T   T   T
  0.0000000000000000 45.7680899999999937 14.5866996667526916   T   T   T
  2.1955665555842310 47.5669100000000000 14.5866996667526916   T   T   T
  3.2933498333763462 34.8394099999999938 15.6844829445448077   T   T   T
  1.0977832777921150 50.0105899999999934 15.6844829445448042   T   T   T
  1.0977832777921150 43.3244100000000003 15.6844829445448042   T   T   T
  0.0000000000000000 39.0819099999999935 14.5866996667526916   T   T   T
  2.1955665555842310 37.2830899999999943 14.5866996667526916   T   T   T
  3.2933498333763462 44.1559400000000011 15.6844829445448077   T   T   T
  0.0000000000000000 48.3984399999999937 14.5866996667526916   T   T   T
  2.1955665555842310 44.9365600000000001 14.5866996667526916   T   T   T
  3.2933498333763462 49.1790599999999927 15.6844829445448077   T   T   T
  1.0977832777921150 35.6709399999999945 15.6844829445448042   T   T   T
  1.0977832777921150 40.6940599999999932 15.6844829445448042   T   T   T
  0.0000000000000000 36.4515599999999935 14.5866996667526916   T   T   T
  2.1955665555842310 39.9134399999999943 14.5866996667526916   T   T   T
  5.4889163889605754  7.5855899999999998  9.0977832777921144   F   F   F
  6.5866996667526898 11.8280899999999978  8.0000000000000000   F   F   F
  4.3911331111684602 13.6269100000000005  8.0000000000000000   F   F   F
  5.4889163889605754  0.8994099999999987  9.0977832777921144   F   F   F
  7.6844829445448060 16.0705899999999993  9.0977832777921144   F   F   F
  7.6844829445448060  9.3844099999999990  9.0977832777921144   F   F   F
  6.5866996667526898  5.1419100000000002  8.0000000000000000   F   F   F
  4.3911331111684602  3.3430899999999988  8.0000000000000000   F   F   F
  5.4889163889605754 10.2159399999999998  9.0977832777921144   F   F   F
  6.5866996667526898 14.4584399999999995  8.0000000000000000   F   F   F
  4.3911331111684602 10.9965600000000023  8.0000000000000000   F   F   F
  5.4889163889605754 15.2390599999999949  9.0977832777921144   F   F   F
  7.6844829445448060  1.7309399999999995  9.0977832777921144   F   F   F
  7.6844829445448060  6.7540599999999982  9.0977832777921144   F   F   F
  6.5866996667526898  2.5115599999999985  8.0000000000000000   F   F   F
  4.3911331111684602  5.9734399999999992  8.0000000000000000   F   F   F
  7.6844829445448060  7.5855899999999998 11.2933498333763467   F   F   F
  4.3911331111684602 11.8280899999999978 10.1955665555842305   F   F   F
  6.5866996667526898 13.6269100000000005 10.1955665555842305   F   F   F
  7.6844829445448060  0.8994099999999985 11.2933498333763467   F   F   F
  5.4889163889605754 16.0705899999999993 11.2933498333763449   F   F   F
  5.4889163889605754  9.3844099999999990 11.2933498333763449   F   F   F
  4.3911331111684602  5.1419100000000002 10.1955665555842305   F   F   F
  6.5866996667526898  3.3430899999999988 10.1955665555842305   F   F   F
  7.6844829445448060 10.2159399999999998 11.2933498333763467   F   F   F
  4.3911331111684602 14.4584399999999995 10.1955665555842305   F   F   F
  6.5866996667526898 10.9965600000000023 10.1955665555842305   F   F   F
  7.6844829445448060 15.2390599999999949 11.2933498333763467   F   F   F
  5.4889163889605754  1.7309399999999993 11.2933498333763449   F   F   F
  5.4889163889605754  6.7540599999999982 11.2933498333763449   F   F   F
  4.3911331111684602  2.5115599999999985 10.1955665555842305   F   F   F
  6.5866996667526898  5.9734399999999992 10.1955665555842305   F   F   F
  5.4889163889605754  7.5855899999999998 13.4889163889605754   T   T   T
  6.5866996667526916 11.8280899999999978 12.3911331111684611   T   T   T
  4.3911331111684602 13.6269100000000005 12.3911331111684611   T   T   T
  5.4889163889605754  0.8994099999999984 13.4889163889605754   T   T   T
  7.6844829445448060 16.0705899999999993 13.4889163889605754   T   T   T
  7.6844829445448060  9.3844099999999990 13.4889163889605754   T   T   T
  6.5866996667526916  5.1419100000000002 12.3911331111684611   T   T   T
  4.3911331111684602  3.3430899999999983 12.3911331111684611   T   T   T
  5.4889163889605754 10.2159399999999998 13.4889163889605754   T   T   T
  6.5866996667526916 14.4584399999999995 12.3911331111684611   T   T   T
  4.3911331111684602 10.9965600000000023 12.3911331111684611   T   T   T
  5.4889163889605754 15.2390599999999949 13.4889163889605754   T   T   T
  7.6844829445448060  1.7309399999999990 13.4889163889605754   T   T   T
  7.6844829445448060  6.7540599999999982 13.4889163889605754   T   T   T
  6.5866996667526916  2.5115599999999980 12.3911331111684611   T   T   T
  4.3911331111684602  5.9734399999999992 12.3911331111684611   T   T   T
  7.6844829445448060  7.5855899999999989 15.6844829445448077   T   T   T
  4.3911331111684602 11.8280899999999978 14.5866996667526916   T   T   T
  6.5866996667526916 13.6269100000000005 14.5866996667526916   T   T   T
  7.6844829445448060  0.8994099999999982 15.6844829445448077   T   T   T
  5.4889163889605754 16.0705899999999993 15.6844829445448042   T   T   T
  5.4889163889605754  9.3844099999999990 15.6844829445448042   T   T   T
  4.3911331111684602  5.1419099999999993 14.5866996667526916   T   T   T
  6.5866996667526916  3.3430899999999983 14.5866996667526916   T   T   T
  7.6844829445448060 10.2159399999999998 15.6844829445448077   T   T   T
  4.3911331111684602 14.4584399999999995 14.5866996667526916   T   T   T
  6.5866996667526916 10.9965600000000023 14.5866996667526916   T   T   T
  7.6844829445448060 15.2390599999999949 15.6844829445448077   T   T   T
  5.4889163889605754  1.7309399999999988 15.6844829445448042   T   T   T
  5.4889163889605754  6.7540599999999973 15.6844829445448042   T   T   T
  4.3911331111684602  2.5115599999999980 14.5866996667526916   T   T   T
  6.5866996667526916  5.9734399999999983 14.5866996667526916   T   T   T
  5.4889163889605754 24.5555899999999987  9.0977832777921144   F   F   F
  6.5866996667526898 28.7980899999999949  8.0000000000000000   F   F   F
  4.3911331111684602 30.5969100000000012  8.0000000000000000   F   F   F
  5.4889163889605754 17.8694099999999985  9.0977832777921144   F   F   F
  7.6844829445448060 33.0405899999999946  9.0977832777921144   F   F   F
  7.6844829445448060 26.3544099999999979  9.0977832777921144   F   F   F
  6.5866996667526898 22.1119099999999982  8.0000000000000000   F   F   F
  4.3911331111684602 20.3130899999999990  8.0000000000000000   F   F   F
  5.4889163889605754 27.1859399999999987  9.0977832777921144   F   F   F
  6.5866996667526898 31.4284399999999984  8.0000000000000000   F   F   F
  4.3911331111684602 27.9665600000000012  8.0000000000000000   F   F   F
  5.4889163889605754 32.2090599999999938  9.0977832777921144   F   F   F
  7.6844829445448060 18.7009399999999992  9.0977832777921144   F   F   F
  7.6844829445448060 23.7240599999999979  9.0977832777921144   F   F   F
  6.5866996667526898 19.4815599999999982  8.0000000000000000   F   F   F
  4.3911331111684602 22.9434399999999989  8.0000000000000000   F   F   F
  7.6844829445448060 24.5555899999999987 11.2933498333763467   F   F   F
  4.3911331111684602 28.7980899999999949 10.1955665555842305   F   F   F
  6.5866996667526898 30.5969100000000012 10.1955665555842305   F   F   F
  7.6844829445448060 17.8694099999999985 11.2933498333763467   F   F   F
  5.4889163889605754 33.0405899999999946 11.2933498333763449   F   F   F
  5.4889163889605754 26.3544099999999979 11.2933498333763449   F   F   F
  4.3911331111684602 22.1119099999999982 10.1955665555842305   F   F   F
  6.5866996667526898 20.3130899999999990 10.1955665555842305   F   F   F
  7.6844829445448060 27.1859399999999987 11.2933498333763467   F   F   F
  4.3911331111684602 31.4284399999999984 10.1955665555842305   F   F   F
  6.5866996667526898 27.9665600000000012 10.1955665555842305   F   F   F
  7.6844829445448060 32.2090599999999938 11.2933498333763467   F   F   F
  5.4889163889605754 18.7009399999999992 11.2933498333763449   F   F   F
  5.4889163889605754 23.7240599999999979 11.2933498333763449   F   F   F
  4.3911331111684602 19.4815599999999982 10.1955665555842305   F   F   F
  6.5866996667526898 22.9434399999999989 10.1955665555842305   F   F   F
  5.4889163889605754 24.5555899999999987 13.4889163889605754   T   T   T
  6.5866996667526916 28.7980899999999949 12.3911331111684611   T   T   T
  4.3911331111684602 30.5969100000000012 12.3911331111684611   T   T   T
  5.4889163889605754 17.8694099999999985 13.4889163889605754   T   T   T
  7.6844829445448060 33.0405899999999946 13.4889163889605754   T   T   T
  7.6844829445448060 26.3544099999999979 13.4889163889605754   T   T   T
  6.5866996667526916 22.1119099999999982 12.3911331111684611   T   T   T
  4.3911331111684602 20.3130899999999954 12.3911331111684611   T   T   T
  5.4889163889605754 27.1859399999999987 13.4889163889605754   T   T   T
  6.5866996667526916 31.4284399999999984 12.3911331111684611   T   T   T
  4.3911331111684602 27.9665600000000012 12.3911331111684611   T   T   T
  5.4889163889605754 32.2090599999999938 13.4889163889605754   T   T   T
  7.6844829445448060 18.7009399999999992 13.4889163889605754   T   T   T
  7.6844829445448060 23.7240599999999979 13.4889163889605754   T   T   T
  6.5866996667526916 19.4815599999999982 12.3911331111684611   T   T   T
  4.3911331111684602 22.9434399999999989 12.3911331111684611   T   T   T
  7.6844829445448060 24.5555899999999987 15.6844829445448077   T   T   T
  4.3911331111684602 28.7980899999999949 14.5866996667526916   T   T   T
  6.5866996667526916 30.5969100000000012 14.5866996667526916   T   T   T
  7.6844829445448060 17.8694099999999985 15.6844829445448077   T   T   T
  5.4889163889605754 33.0405899999999946 15.6844829445448042   T   T   T
  5.4889163889605754 26.3544099999999979 15.6844829445448042   T   T   T
  4.3911331111684602 22.1119099999999982 14.5866996667526916   T   T   T
  6.5866996667526916 20.3130899999999954 14.5866996667526916   T   T   T
  7.6844829445448060 27.1859399999999987 15.6844829445448077   T   T   T
  4.3911331111684602 31.4284399999999984 14.5866996667526916   T   T   T
  6.5866996667526916 27.9665600000000012 14.5866996667526916   T   T   T
  7.6844829445448060 32.2090599999999938 15.6844829445448077   T   T   T
  5.4889163889605754 18.7009399999999992 15.6844829445448042   T   T   T
  5.4889163889605754 23.7240599999999944 15.6844829445448042   T   T   T
  4.3911331111684602 19.4815599999999982 14.5866996667526916   T   T   T
  6.5866996667526916 22.9434399999999954 14.5866996667526916   T   T   T
  5.4889163889605754 41.5255899999999940  9.0977832777921144   F   F   F
  6.5866996667526898 45.7680899999999937  8.0000000000000000   F   F   F
  4.3911331111684602 47.5669100000000000  8.0000000000000000   F   F   F
  5.4889163889605754 34.8394099999999938  9.0977832777921144   F   F   F
  7.6844829445448060 50.0105899999999934  9.0977832777921144   F   F   F
  7.6844829445448060 43.3244100000000003  9.0977832777921144   F   F   F
  6.5866996667526898 39.0819100000000006  8.0000000000000000   F   F   F
  4.3911331111684602 37.2830899999999943  8.0000000000000000   F   F   F
  5.4889163889605754 44.1559400000000011  9.0977832777921144   F   F   F
  6.5866996667526898 48.3984399999999937  8.0000000000000000   F   F   F
  4.3911331111684602 44.9365600000000001  8.0000000000000000   F   F   F
  5.4889163889605754 49.1790599999999927  9.0977832777921144   F   F   F
  7.6844829445448060 35.6709399999999945  9.0977832777921144   F   F   F
  7.6844829445448060 40.6940599999999932  9.0977832777921144   F   F   F
  6.5866996667526898 36.4515599999999935  8.0000000000000000   F   F   F
  4.3911331111684602 39.9134399999999943  8.0000000000000000   F   F   F
  7.6844829445448060 41.5255899999999940 11.2933498333763467   F   F   F
  4.3911331111684602 45.7680899999999937 10.1955665555842305   F   F   F
  6.5866996667526898 47.5669100000000000 10.1955665555842305   F   F   F
  7.6844829445448060 34.8394099999999938 11.2933498333763467   F   F   F
  5.4889163889605754 50.0105899999999934 11.2933498333763449   F   F   F
  5.4889163889605754 43.3244100000000003 11.2933498333763449   F   F   F
  4.3911331111684602 39.0819100000000006 10.1955665555842305   F   F   F
  6.5866996667526898 37.2830899999999943 10.1955665555842305   F   F   F
  7.6844829445448060 44.1559400000000011 11.2933498333763467   F   F   F
  4.3911331111684602 48.3984399999999937 10.1955665555842305   F   F   F
  6.5866996667526898 44.9365600000000001 10.1955665555842305   F   F   F
  7.6844829445448060 49.1790599999999927 11.2933498333763467   F   F   F
  5.4889163889605754 35.6709399999999945 11.2933498333763449   F   F   F
  5.4889163889605754 40.6940599999999932 11.2933498333763449   F   F   F
  4.3911331111684602 36.4515599999999935 10.1955665555842305   F   F   F
  6.5866996667526898 39.9134399999999943 10.1955665555842305   F   F   F
  5.4889163889605754 41.5255899999999940 13.4889163889605754   T   T   T
  6.5866996667526916 45.7680899999999937 12.3911331111684611   T   T   T
  4.3911331111684602 47.5669100000000000 12.3911331111684611   T   T   T
  5.4889163889605754 34.8394099999999938 13.4889163889605754   T   T   T
  7.6844829445448060 50.0105899999999934 13.4889163889605754   T   T   T
  7.6844829445448060 43.3244100000000003 13.4889163889605754   T   T   T
  6.5866996667526916 39.0819100000000006 12.3911331111684611   T   T   T
  4.3911331111684602 37.2830899999999943 12.3911331111684611   T   T   T
  5.4889163889605754 44.1559400000000011 13.4889163889605754   T   T   T
  6.5866996667526916 48.3984399999999937 12.3911331111684611   T   T   T
  4.3911331111684602 44.9365600000000001 12.3911331111684611   T   T   T
  5.4889163889605754 49.1790599999999927 13.4889163889605754   T   T   T
  7.6844829445448060 35.6709399999999945 13.4889163889605754   T   T   T
  7.6844829445448060 40.6940599999999932 13.4889163889605754   T   T   T
  6.5866996667526916 36.4515599999999935 12.3911331111684611   T   T   T
  4.3911331111684602 39.9134399999999943 12.3911331111684611   T   T   T
  7.6844829445448060 41.5255899999999940 15.6844829445448077   T   T   T
  4.3911331111684602 45.7680899999999937 14.5866996667526916   T   T   T
  6.5866996667526916 47.5669100000000000 14.5866996667526916   T   T   T
  7.6844829445448060 34.8394099999999938 15.6844829445448077   T   T   T
  5.4889163889605754 50.0105899999999934 15.6844829445448042   T   T   T
  5.4889163889605754 43.3244100000000003 15.6844829445448042   T   T   T
  4.3911331111684602 39.0819099999999935 14.5866996667526916   T   T   T
  6.5866996667526916 37.2830899999999943 14.5866996667526916   T   T   T
  7.6844829445448060 44.1559400000000011 15.6844829445448077   T   T   T
  4.3911331111684602 48.3984399999999937 14.5866996667526916   T   T   T
  6.5866996667526916 44.9365600000000001 14.5866996667526916   T   T   T
  7.6844829445448060 49.1790599999999927 15.6844829445448077   T   T   T
  5.4889163889605754 35.6709399999999945 15.6844829445448042   T   T   T
  5.4889163889605754 40.6940599999999932 15.6844829445448042   T   T   T
  4.3911331111684602 36.4515599999999935 14.5866996667526916   T   T   T
  6.5866996667526916 39.9134399999999943 14.5866996667526916   T   T   T
  9.8800495001290347  7.5855899999999998  9.0977832777921144   F   F   F
 10.9778327779211509 11.8280899999999978  8.0000000000000000   F   F   F
  8.7822662223369203 13.6269100000000005  8.0000000000000000   F   F   F
  9.8800495001290347  0.8994099999999987  9.0977832777921144   F   F   F
 12.0756160557132652 16.0705899999999993  9.0977832777921144   F   F   F
 12.0756160557132652  9.3844099999999990  9.0977832777921144   F   F   F
 10.9778327779211509  5.1419100000000002  8.0000000000000000   F   F   F
  8.7822662223369203  3.3430899999999988  8.0000000000000000   F   F   F
  9.8800495001290347 10.2159399999999998  9.0977832777921144   F   F   F
 10.9778327779211509 14.4584399999999995  8.0000000000000000   F   F   F
  8.7822662223369203 10.9965600000000023  8.0000000000000000   F   F   F
  9.8800495001290347 15.2390599999999949  9.0977832777921144   F   F   F
 12.0756160557132652  1.7309399999999995  9.0977832777921144   F   F   F
 12.0756160557132652  6.7540599999999982  9.0977832777921144   F   F   F
 10.9778327779211509  2.5115599999999985  8.0000000000000000   F   F   F
  8.7822662223369203  5.9734399999999992  8.0000000000000000   F   F   F
 12.0756160557132652  7.5855899999999998 11.2933498333763467   F   F   F
  8.7822662223369203 11.8280899999999978 10.1955665555842305   F   F   F
 10.9778327779211509 13.6269100000000005 10.1955665555842305   F   F   F
 12.0756160557132652  0.8994099999999985 11.2933498333763467   F   F   F
  9.8800495001290347 16.0705899999999993 11.2933498333763449   F   F   F
  9.8800495001290347  9.3844099999999990 11.2933498333763449   F   F   F
  8.7822662223369203  5.1419100000000002 10.1955665555842305   F   F   F
 10.9778327779211509  3.3430899999999988 10.1955665555842305   F   F   F
 12.0756160557132652 10.2159399999999998 11.2933498333763467   F   F   F
  8.7822662223369203 14.4584399999999995 10.1955665555842305   F   F   F
 10.9778327779211509 10.9965600000000023 10.1955665555842305   F   F   F
 12.0756160557132652 15.2390599999999949 11.2933498333763467   F   F   F
  9.8800495001290347  1.7309399999999993 11.2933498333763449   F   F   F
  9.8800495001290347  6.7540599999999982 11.2933498333763449   F   F   F
  8.7822662223369203  2.5115599999999985 10.1955665555842305   F   F   F
 10.9778327779211509  5.9734399999999992 10.1955665555842305   F   F   F
  9.8800495001290347  7.5855899999999998 13.4889163889605754   T   T   T
 10.9778327779211509 11.8280899999999978 12.3911331111684611   T   T   T
  8.7822662223369203 13.6269100000000005 12.3911331111684611   T   T   T
  9.8800495001290347  0.8994099999999984 13.4889163889605754   T   T   T
 12.0756160557132670 16.0705899999999993 13.4889163889605754   T   T   T
 12.0756160557132670  9.3844099999999990 13.4889163889605754   T   T   T
 10.9778327779211509  5.1419100000000002 12.3911331111684611   T   T   T
  8.7822662223369203  3.3430899999999983 12.3911331111684611   T   T   T
  9.8800495001290347 10.2159399999999998 13.4889163889605754   T   T   T
 10.9778327779211509 14.4584399999999995 12.3911331111684611   T   T   T
  8.7822662223369203 10.9965600000000023 12.3911331111684611   T   T   T
  9.8800495001290347 15.2390599999999949 13.4889163889605754   T   T   T
 12.0756160557132670  1.7309399999999990 13.4889163889605754   T   T   T
 12.0756160557132670  6.7540599999999982 13.4889163889605754   T   T   T
 10.9778327779211509  2.5115599999999980 12.3911331111684611   T   T   T
  8.7822662223369203  5.9734399999999992 12.3911331111684611   T   T   T
 12.0756160557132670  7.5855899999999989 15.6844829445448077   T   T   T
  8.7822662223369203 11.8280899999999978 14.5866996667526916   T   T   T
 10.9778327779211509 13.6269100000000005 14.5866996667526916   T   T   T
 12.0756160557132670  0.8994099999999982 15.6844829445448077   T   T   T
  9.8800495001290347 16.0705899999999993 15.6844829445448042   T   T   T
  9.8800495001290347  9.3844099999999990 15.6844829445448042   T   T   T
  8.7822662223369203  5.1419099999999993 14.5866996667526916   T   T   T
 10.9778327779211509  3.3430899999999983 14.5866996667526916   T   T   T
 12.0756160557132670 10.2159399999999998 15.6844829445448077   T   T   T
  8.7822662223369203 14.4584399999999995 14.5866996667526916   T   T   T
 10.9778327779211509 10.9965600000000023 14.5866996667526916   T   T   T
 12.0756160557132670 15.2390599999999949 15.6844829445448077   T   T   T
  9.8800495001290347  1.7309399999999988 15.6844829445448042   T   T   T
  9.8800495001290347  6.7540599999999973 15.6844829445448042   T   T   T
  8.7822662223369203  2.5115599999999980 14.5866996667526916   T   T   T
 10.9778327779211509  5.9734399999999983 14.5866996667526916   T   T   T
  9.8800495001290347 24.5555899999999987  9.0977832777921144   F   F   F
 10.9778327779211509 28.7980899999999949  8.0000000000000000   F   F   F
  8.7822662223369203 30.5969100000000012  8.0000000000000000   F   F   F
  9.8800495001290347 17.8694099999999985  9.0977832777921144   F   F   F
 12.0756160557132652 33.0405899999999946  9.0977832777921144   F   F   F
 12.0756160557132652 26.3544099999999979  9.0977832777921144   F   F   F
 10.9778327779211509 22.1119099999999982  8.0000000000000000   F   F   F
  8.7822662223369203 20.3130899999999990  8.0000000000000000   F   F   F
  9.8800495001290347 27.1859399999999987  9.0977832777921144   F   F   F
 10.9778327779211509 31.4284399999999984  8.0000000000000000   F   F   F
  8.7822662223369203 27.9665600000000012  8.0000000000000000   F   F   F
  9.8800495001290347 32.2090599999999938  9.0977832777921144   F   F   F
 12.0756160557132652 18.7009399999999992  9.0977832777921144   F   F   F
 12.0756160557132652 23.7240599999999979  9.0977832777921144   F   F   F
 10.9778327779211509 19.4815599999999982  8.0000000000000000   F   F   F
  8.7822662223369203 22.9434399999999989  8.0000000000000000   F   F   F
 12.0756160557132652 24.5555899999999987 11.2933498333763467   F   F   F
  8.7822662223369203 28.7980899999999949 10.1955665555842305   F   F   F
 10.9778327779211509 30.5969100000000012 10.1955665555842305   F   F   F
 12.0756160557132652 17.8694099999999985 11.2933498333763467   F   F   F
  9.8800495001290347 33.0405899999999946 11.2933498333763449   F   F   F
  9.8800495001290347 26.3544099999999979 11.2933498333763449   F   F   F
  8.7822662223369203 22.1119099999999982 10.1955665555842305   F   F   F
 10.9778327779211509 20.3130899999999990 10.1955665555842305   F   F   F
 12.0756160557132652 27.1859399999999987 11.2933498333763467   F   F   F
  8.7822662223369203 31.4284399999999984 10.1955665555842305   F   F   F
 10.9778327779211509 27.9665600000000012 10.1955665555842305   F   F   F
 12.0756160557132652 32.2090599999999938 11.2933498333763467   F   F   F
  9.8800495001290347 18.7009399999999992 11.2933498333763449   F   F   F
  9.8800495001290347 23.7240599999999979 11.2933498333763449   F   F   F
  8.7822662223369203 19.4815599999999982 10.1955665555842305   F   F   F
 10.9778327779211509 22.9434399999999989 10.1955665555842305   F   F   F
  9.8800495001290347 24.5555899999999987 13.4889163889605754   T   T   T
 10.9778327779211509 28.7980899999999949 12.3911331111684611   T   T   T
  8.7822662223369203 30.5969100000000012 12.3911331111684611   T   T   T
  9.8800495001290347 17.8694099999999985 13.4889163889605754   T   T   T
 12.0756160557132670 33.0405899999999946 13.4889163889605754   T   T   T
 12.0756160557132670 26.3544099999999979 13.4889163889605754   T   T   T
 10.9778327779211509 22.1119099999999982 12.3911331111684611   T   T   T
  8.7822662223369203 20.3130899999999954 12.3911331111684611   T   T   T
  9.8800495001290347 27.1859399999999987 13.4889163889605754   T   T   T
 10.9778327779211509 31.4284399999999984 12.3911331111684611   T   T   T
  8.7822662223369203 27.9665600000000012 12.3911331111684611   T   T   T
  9.8800495001290347 32.2090599999999938 13.4889163889605754   T   T   T
 12.0756160557132670 18.7009399999999992 13.4889163889605754   T   T   T
 12.0756160557132670 23.7240599999999979 13.4889163889605754   T   T   T
 10.9778327779211509 19.4815599999999982 12.3911331111684611   T   T   T
  8.7822662223369203 22.9434399999999989 12.3911331111684611   T   T   T
 12.0756160557132670 24.5555899999999987 15.6844829445448077   T   T   T
  8.7822662223369203 28.7980899999999949 14.5866996667526916   T   T   T
 10.9778327779211509 30.5969100000000012 14.5866996667526916   T   T   T
 12.0756160557132670 17.8694099999999985 15.6844829445448077   T   T   T
  9.8800495001290347 33.0405899999999946 15.6844829445448042   T   T   T
  9.8800495001290347 26.3544099999999979 15.6844829445448042   T   T   T
  8.7822662223369203 22.1119099999999982 14.5866996667526916   T   T   T
 10.9778327779211509 20.3130899999999954 14.5866996667526916   T   T   T
 12.0756160557132670 27.1859399999999987 15.6844829445448077   T   T   T
  8.7822662223369203 31.4284399999999984 14.5866996667526916   T   T   T
 10.9778327779211509 27.9665600000000012 14.5866996667526916   T   T   T
 12.0756160557132670 32.2090599999999938 15.6844829445448077   T   T   T
  9.8800495001290347 18.7009399999999992 15.6844829445448042   T   T   T
  9.8800495001290347 23.7240599999999944 15.6844829445448042   T   T   T
  8.7822662223369203 19.4815599999999982 14.5866996667526916   T   T   T
 10.9778327779211509 22.9434399999999954 14.5866996667526916   T   T   T
  9.8800495001290347 41.5255899999999940  9.0977832777921144   F   F   F
 10.9778327779211509 45.7680899999999937  8.0000000000000000   F   F   F
  8.7822662223369203 47.5669100000000000  8.0000000000000000   F   F   F
  9.8800495001290347 34.8394099999999938  9.0977832777921144   F   F   F
 12.0756160557132652 50.0105899999999934  9.0977832777921144   F   F   F
 12.0756160557132652 43.3244100000000003  9.0977832777921144   F   F   F
 10.9778327779211509 39.0819100000000006  8.0000000000000000   F   F   F
  8.7822662223369203 37.2830899999999943  8.0000000000000000   F   F   F
  9.8800495001290347 44.1559400000000011  9.0977832777921144   F   F   F
 10.9778327779211509 48.3984399999999937  8.0000000000000000   F   F   F
  8.7822662223369203 44.9365600000000001  8.0000000000000000   F   F   F
  9.8800495001290347 49.1790599999999927  9.0977832777921144   F   F   F
 12.0756160557132652 35.6709399999999945  9.0977832777921144   F   F   F
 12.0756160557132652 40.6940599999999932  9.0977832777921144   F   F   F
 10.9778327779211509 36.4515599999999935  8.0000000000000000   F   F   F
  8.7822662223369203 39.9134399999999943  8.0000000000000000   F   F   F
 12.0756160557132652 41.5255899999999940 11.2933498333763467   F   F   F
  8.7822662223369203 45.7680899999999937 10.1955665555842305   F   F   F
 10.9778327779211509 47.5669100000000000 10.1955665555842305   F   F   F
 12.0756160557132652 34.8394099999999938 11.2933498333763467   F   F   F
  9.8800495001290347 50.0105899999999934 11.2933498333763449   F   F   F
  9.8800495001290347 43.3244100000000003 11.2933498333763449   F   F   F
  8.7822662223369203 39.0819100000000006 10.1955665555842305   F   F   F
 10.9778327779211509 37.2830899999999943 10.1955665555842305   F   F   F
 12.0756160557132652 44.1559400000000011 11.2933498333763467   F   F   F
  8.7822662223369203 48.3984399999999937 10.1955665555842305   F   F   F
 10.9778327779211509 44.9365600000000001 10.1955665555842305   F   F   F
 12.0756160557132652 49.1790599999999927 11.2933498333763467   F   F   F
  9.8800495001290347 35.6709399999999945 11.2933498333763449   F   F   F
  9.8800495001290347 40.6940599999999932 11.2933498333763449   F   F   F
  8.7822662223369203 36.4515599999999935 10.1955665555842305   F   F   F
 10.9778327779211509 39.9134399999999943 10.1955665555842305   F   F   F
  9.8800495001290347 41.5255899999999940 13.4889163889605754   T   T   T
 10.9778327779211509 45.7680899999999937 12.3911331111684611   T   T   T
  8.7822662223369203 47.5669100000000000 12.3911331111684611   T   T   T
  9.8800495001290347 34.8394099999999938 13.4889163889605754   T   T   T
 12.0756160557132670 50.0105899999999934 13.4889163889605754   T   T   T
 12.0756160557132670 43.3244100000000003 13.4889163889605754   T   T   T
 10.9778327779211509 39.0819100000000006 12.3911331111684611   T   T   T
  8.7822662223369203 37.2830899999999943 12.3911331111684611   T   T   T
  9.8800495001290347 44.1559400000000011 13.4889163889605754   T   T   T
 10.9778327779211509 48.3984399999999937 12.3911331111684611   T   T   T
  8.7822662223369203 44.9365600000000001 12.3911331111684611   T   T   T
  9.8800495001290347 49.1790599999999927 13.4889163889605754   T   T   T
 12.0756160557132670 35.6709399999999945 13.4889163889605754   T   T   T
 12.0756160557132670 40.6940599999999932 13.4889163889605754   T   T   T
 10.9778327779211509 36.4515599999999935 12.3911331111684611   T   T   T
  8.7822662223369203 39.9134399999999943 12.3911331111684611   T   T   T
 12.0756160557132670 41.5255899999999940 15.6844829445448077   T   T   T
  8.7822662223369203 45.7680899999999937 14.5866996667526916   T   T   T
 10.9778327779211509 47.5669100000000000 14.5866996667526916   T   T   T
 12.0756160557132670 34.8394099999999938 15.6844829445448077   T   T   T
  9.8800495001290347 50.0105899999999934 15.6844829445448042   T   T   T
  9.8800495001290347 43.3244100000000003 15.6844829445448042   T   T   T
  8.7822662223369203 39.0819099999999935 14.5866996667526916   T   T   T
 10.9778327779211509 37.2830899999999943 14.5866996667526916   T   T   T
 12.0756160557132670 44.1559400000000011 15.6844829445448077   T   T   T
  8.7822662223369203 48.3984399999999937 14.5866996667526916   T   T   T
 10.9778327779211509 44.9365600000000001 14.5866996667526916   T   T   T
 12.0756160557132670 49.1790599999999927 15.6844829445448077   T   T   T
  9.8800495001290347 35.6709399999999945 15.6844829445448042   T   T   T
  9.8800495001290347 40.6940599999999932 15.6844829445448042   T   T   T
  8.7822662223369203 36.4515599999999935 14.5866996667526916   T   T   T
 10.9778327779211509 39.9134399999999943 14.5866996667526916   T   T   T
