Ti Ni C  O  Ag
 1.0000000000000000
    15.5438991247370097    0.0000000000000000    0.0000000000000010
     7.7719495623685084   13.4614115158849490   -0.0000000000000025
     0.0000000000000000    0.0000000000000000   36.4068188426424513
 Ti  Ni  C   O   Ag 
  75 156  50  50   2
Selective dynamics
Cartesian
  7.7719495623685084  9.8717017783156304 23.2968188426424518   T   T   T
  6.2175596498948078  7.1794194751386406 23.2968188426424518   T   T   T
  4.6631697374211054  4.4871371719616508 23.2968188426424518   T   T   T
  3.1087798249474026  1.7948548687846606 23.2968188426424518   T   T   T
  9.3263394748422108 12.5639840814926202 23.2968188426424447   T   T   T
 10.8807293873159097  9.8717017783156304 23.2968188426424518   T   T   T
  9.3263394748422090  7.1794194751386406 23.2968188426424518   T   T   T
  7.7719495623685049  4.4871371719616508 23.2968188426424518   T   T   T
  6.2175596498948043  1.7948548687846606 23.2968188426424518   T   T   T
 12.4351192997896121 12.5639840814926202 23.2968188426424447   T   T   T
 13.9895092122633127  9.8717017783156304 23.2968188426424518   T   T   T
 12.4351192997896121  7.1794194751386406 23.2968188426424518   T   T   T
 10.8807293873159097  4.4871371719616508 23.2968188426424518   T   T   T
  9.3263394748422108  1.7948548687846606 23.2968188426424518   T   T   T
 15.5438991247370133 12.5639840814926202 23.2968188426424447   T   T   T
 17.0982890372107157  9.8717017783156304 23.2968188426424518   T   T   T
 15.5438991247370133  7.1794194751386406 23.2968188426424518   T   T   T
 13.9895092122633109  4.4871371719616508 23.2968188426424518   T   T   T
 12.4351192997896138  1.7948548687846606 23.2968188426424518   T   T   T
 18.6526789496844181 12.5639840814926202 23.2968188426424518   T   T   T
 20.2070688621581169  9.8717017783156304 23.2968188426424518   T   T   T
 18.6526789496844181  7.1794194751386406 23.2968188426424518   T   T   T
 17.0982890372107050  4.4871371719616508 23.2968188426424518   T   T   T
 15.5438991247370115  1.7948548687846606 23.2968188426424518   T   T   T
 21.7614587746318158 12.5639840814926202 23.2968188426424518   T   T   T
  6.2175596498948069  8.9742743439233017 21.2968188426424518   T   T   T
  4.6631697374211054  6.2819920407463110 21.2968188426424518   T   T   T
  3.1087798249474039  3.5897097375693212 21.2968188426424518   T   T   T
  1.5543899124737015  0.8974274343923305 21.2968188426424518   T   T   T
  7.7719495623685084 11.6665566471002897 21.2968188426424447   T   T   T
  9.3263394748422108  8.9742743439233017 21.2968188426424518   T   T   T
  7.7719495623685066  6.2819920407463110 21.2968188426424518   T   T   T
  6.2175596498948051  3.5897097375693212 21.2968188426424518   T   T   T
  4.6631697374211045  0.8974274343923305 21.2968188426424518   T   T   T
 10.8807293873159097 11.6665566471002897 21.2968188426424447   T   T   T
 12.4351192997896121  8.9742743439233017 21.2968188426424518   T   T   T
 10.8807293873159079  6.2819920407463110 21.2968188426424518   T   T   T
  9.3263394748422073  3.5897097375693212 21.2968188426424518   T   T   T
  7.7719495623685058  0.8974274343923305 21.2968188426424518   T   T   T
 13.9895092122633127 11.6665566471002897 21.2968188426424518   T   T   T
 15.5438991247370097  8.9742743439233017 21.2968188426424518   T   T   T
 13.9895092122633109  6.2819920407463110 21.2968188426424518   T   T   T
 12.4351192997896085  3.5897097375693212 21.2968188426424518   T   T   T
 10.8807293873159079  0.8974274343923305 21.2968188426424518   T   T   T
 17.0982890372107157 11.6665566471002897 21.2968188426424518   T   T   T
 18.6526789496844145  8.9742743439233017 21.2968188426424518   T   T   T
 17.0982890372107121  6.2819920407463110 21.2968188426424518   T   T   T
 15.5438991247370097  3.5897097375693212 21.2968188426424518   T   T   T
 13.9895092122633091  0.8974274343923305 21.2968188426424518   T   T   T
 20.2070688621581169 11.6665566471002897 21.2968188426424518   T   T   T
  6.2175596498948078 10.7691292127079610 19.2968188426424447   T   T   T
  4.6631697374211054  8.0768469095309712 19.2968188426424447   T   T   T
  3.1087798249474039  5.3845646063539805 19.2968188426424447   T   T   T
  1.5543899124737020  2.6922823031769902 19.2968188426424447   T   T   T
  0.0000000000000000  0.0000000000000000 19.2968188426424447   T   T   T
  9.3263394748422108 10.7691292127079610 19.2968188426424447   T   T   T
  7.7719495623685066  8.0768469095309712 19.2968188426424447   T   T   T
  6.2175596498948060  5.3845646063539805 19.2968188426424447   T   T   T
  4.6631697374211036  2.6922823031769902 19.2968188426424447   T   T   T
  3.1087798249474021  0.0000000000000000 19.2968188426424447   T   T   T
 12.4351192997896121 10.7691292127079610 19.2968188426424447   T   T   T
 10.8807293873159079  8.0768469095309712 19.2968188426424447   T   T   T
  9.3263394748422073  5.3845646063539805 19.2968188426424447   T   T   T
  7.7719495623685049  2.6922823031769902 19.2968188426424447   T   T   T
  6.2175596498948043  0.0000000000000000 19.2968188426424447   T   T   T
 15.5438991247370115 10.7691292127079610 19.2968188426424447   T   T   T
 13.9895092122633091  8.0768469095309712 19.2968188426424447   T   T   T
 12.4351192997896085  5.3845646063539805 19.2968188426424447   T   T   T
 10.8807293873159097  2.6922823031769902 19.2968188426424447   T   T   T
  9.3263394748422073  0.0000000000000000 19.2968188426424447   T   T   T
 18.6526789496844145 10.7691292127079610 19.2968188426424447   T   T   T
 17.0982890372107121  8.0768469095309712 19.2968188426424447   T   T   T
 15.5438991247370097  5.3845646063539805 19.2968188426424447   T   T   T
 13.9895092122633109  2.6922823031769902 19.2968188426424447   T   T   T
 12.4351192997896085  0.0000000000000000 19.2968188426424447   T   T   T
  1.9928075800944880  2.0709863870592224 10.0000000000000036   F   F   F
  4.3841766762078747  2.7613151827456304 10.0000000000000036   F   F   F
  4.9820189502362204  5.1774659676480557 10.0000000000000036   F   F   F
  5.5798612242645689  7.5936167525504841 10.0000000000000000   F   F   F
  6.7755457723212613  3.4516439784320370 10.0000000000000036   F   F   F
  7.3733880463496098  5.8677947633344640 10.0000000000000036   F   F   F
  7.9712303203779546  8.2839455482368898 10.0000000000000000   F   F   F
  8.5690725944063022 10.7000963331393173 10.0000000000000036   F   F   F
  9.1669148684346489 13.1162471180417430 10.0000000000000000   F   F   F
  9.1669148684346489  4.1419727741184458 10.0000000000000036   F   F   F
  9.7647571424629973  6.5581235590208742 10.0000000000000000   F   F   F
 10.3625994164913404  8.9742743439232964 10.0000000000000000   F   F   F
 10.9604416905196871 11.3904251288257257 10.0000000000000000   F   F   F
  3.7863344021795275  0.3451643978432037 10.0000000000000036   F   F   F
 10.9604416905196889  2.4161507849024262 10.0000000000000036   F   F   F
 11.5582839645480355  4.8323015698048541 10.0000000000000000   F   F   F
 12.1561262385763804  7.2484523547072781 10.0000000000000036   F   F   F
 12.7539685126047271  9.6646031396097083 10.0000000000000000   F   F   F
 13.3518107866330755 12.0807539245121340 10.0000000000000000   F   F   F
  6.1777034982929120  1.0354931935296086 10.0000000000000036   F   F   F
 13.3518107866330755  3.1064795805888332 10.0000000000000000   F   F   F
 13.9496530606614186  5.5226303654912616 10.0000000000000000   F   F   F
 14.5474953346897671  7.9387811503936891 10.0000000000000000   F   F   F
 15.1453376087181137 10.3549319352961149 10.0000000000000000   F   F   F
 15.7431798827464640 12.7710827201985424 10.0000000000000000   F   F   F
  8.5690725944063022  1.7258219892160196 10.0000000000000036   F   F   F
 15.7431798827464604  3.7968083762752429 10.0000000000000000   F   F   F
 16.3410221567748053  6.2129591611776691 10.0000000000000036   F   F   F
 16.9388644308031537  8.6291099460800940 10.0000000000000036   F   F   F
 17.5367067048315022 11.0452607309825215 10.0000000000000000   F   F   F
 18.1345489788598506 13.4614115158849490 10.0000000000000000   F   F   F
 18.1345489788598471  4.4871371719616491 10.0000000000000000   F   F   F
 18.7323912528881955  6.9032879568640757 10.0000000000000000   F   F   F
 19.3302335269165404  9.3194387417665023 10.0000000000000000   F   F   F
 19.9280758009448888 11.7355895266689298 10.0000000000000000   F   F   F
 12.7539685126047289  0.6903287956864086 10.0000000000000036   F   F   F
  6.1777034982929155 10.0097675374529107 10.0000000000000000   F   F   F
 22.3194448970582755 12.4259183223553347 10.0000000000000036   F   F   F
 15.1453376087181173  1.3806575913728172 10.0000000000000000   F   F   F
  2.9892113701417329  3.1064795805888328 12.0322729475474866   F   F   F
  5.3805804662551191  3.7968083762752407 12.0322729475474866   F   F   F
  5.9784227402834658  6.2129591611776664 12.0322729475474830   F   F   F
  6.5762650143118133  8.6291099460800940 12.0322729475474830   F   F   F
  7.7719495623685075  4.4871371719616491 12.0322729475474830   F   F   F
  8.3697918363968533  6.9032879568640739 12.0322729475474830   F   F   F
  8.9676341104252018  9.3194387417665023 12.0322729475474830   F   F   F
  9.5654763844535466 11.7355895266689263 12.0322729475474830   F   F   F
  2.3913690961133858  0.6903287956864070 12.0322729475474866   F   F   F
 10.1633186584818915  5.1774659676480557 12.0322729475474830   F   F   F
 10.7611609325102400  7.5936167525504841 12.0322729475474830   F   F   F
 11.3590032065385849 10.0097675374529089 12.0322729475474830   F   F   F
 11.9568454805669315 12.4259183223553347 12.0322729475474830   F   F   F
  4.7827381922267707  1.3806575913728121 12.0322729475474830   F   F   F
 11.9568454805669315  3.4516439784320365 12.0322729475474866   F   F   F
 12.5546877545952800  5.8677947633344631 12.0322729475474830   F   F   F
 13.1525300286236231  8.2839455482368898 12.0322729475474830   F   F   F
 13.7503723026519715 10.7000963331393173 12.0322729475474830   F   F   F
 14.3482145766803182 13.1162471180417430 12.0322729475474830   F   F   F
  7.1741072883401600  2.0709863870592202 12.0322729475474866   F   F   F
 14.3482145766803182  4.1419727741184449 12.0322729475474866   F   F   F
 14.9460568507086684  6.5581235590208715 12.0322729475474830   F   F   F
 15.5438991247370115  8.9742743439232981 12.0322729475474830   F   F   F
 16.1417413987653617 11.3904251288257239 12.0322729475474830   F   F   F
 16.7395836727937102 13.8065759137281514 12.0322729475474830   F   F   F
  9.5654763844535466  2.7613151827456286 12.0322729475474830   F   F   F
 16.7395836727937031  4.8323015698048533 12.0322729475474830   F   F   F
 17.3374259468220515  7.2484523547072799 12.0322729475474830   F   F   F
 17.9352682208504000  9.6646031396097065 12.0322729475474794   F   F   F
 18.5331104948787484 12.0807539245121358 12.0322729475474830   F   F   F
 11.3590032065385813  1.0354931935296097 12.0322729475474830   F   F   F
  3.5870536441700844  5.5226303654912599 12.0322729475474830   F   F   F
 19.7287950429354382  7.9387811503936847 12.0322729475474830   F   F   F
 20.3266373169637902 10.3549319352961131 12.0322729475474830   F   F   F
 20.9244795909921351 12.7710827201985424 12.0322729475474830   F   F   F
 13.7503723026519697  1.7258219892160209 12.0322729475474830   F   F   F
  7.1741072883401618 11.0452607309825197 12.0322729475474830   F   F   F
 23.3158486871055146 13.4614115158849437 12.0322729475474866   F   F   F
 16.1417413987653582  2.4161507849024257 12.0322729475474830   F   F   F
  0.9964037900472418  1.0354931935296101 14.0645458950949660   T   T   T
  3.3877728861606289  1.7258219892160178 14.0645458950949660   T   T   T
  3.9856151601889760  4.1419727741184449 14.0645458950949660   T   T   T
  4.5834574342173227  6.5581235590208706 14.0645458950949660   T   T   T
  5.7791419822740187  2.4161507849024257 14.0645458950949660   T   T   T
  6.3769842563023644  4.8323015698048524 14.0645458950949660   T   T   T
  6.9748265303307129  7.2484523547072817 14.0645458950949660   T   T   T
  7.5726688043590542  9.6646031396097047 14.0645458950949660   T   T   T
  8.1705110783874044 12.0807539245121340 14.0645458950949660   T   T   T
  8.1705110783874044  3.1064795805888332 14.0645458950949660   T   T   T
  8.7683533524157493  5.5226303654912607 14.0645458950949660   T   T   T
  9.3661956264440960  7.9387811503936865 14.0645458950949660   T   T   T
  9.9640379004724444 10.3549319352961113 14.0645458950949660   T   T   T
 10.5618801745007929 12.7710827201985424 14.0645458950949660   T   T   T
  9.9640379004724426  1.3806575913728143 14.0645458950949660   T   T   T
 10.5618801745007911  3.7968083762752407 14.0645458950949660   T   T   T
 11.1597224485291342  6.2129591611776682 14.0645458950949660   T   T   T
 11.7575647225574826  8.6291099460800975 14.0645458950949624   T   T   T
 12.3554069965858275 11.0452607309825250 14.0645458950949624   T   T   T
 12.9532492706141795 13.4614115158849490 14.0645458950949624   T   T   T
 12.3554069965858311  2.0709863870592224 14.0645458950949660   T   T   T
 12.9532492706141760  4.4871371719616491 14.0645458950949660   T   T   T
 13.5510915446425226  6.9032879568640739 14.0645458950949696   T   T   T
 14.1489338186708729  9.3194387417665023 14.0645458950949660   T   T   T
 14.7467760926992195 11.7355895266689281 14.0645458950949624   T   T   T
  7.5726688043590586  0.6903287956864075 14.0645458950949660   T   T   T
 14.7467760926992142  2.7613151827456304 14.0645458950949660   T   T   T
 15.3446183667275644  5.1774659676480566 14.0645458950949660   T   T   T
 15.9424606407559093  7.5936167525504858 14.0645458950949660   T   T   T
 16.5403029147842631 10.0097675374529143 14.0645458950949660   T   T   T
 17.1381451888126008 12.4259183223553329 14.0645458950949624   T   T   T
 17.1381451888126044  3.4516439784320387 14.0645458950949660   T   T   T
 17.7359874628409493  5.8677947633344640 14.0645458950949660   T   T   T
 18.3338297368692977  8.2839455482368916 14.0645458950949660   T   T   T
 18.9316720108976462 10.7000963331393208 14.0645458950949624   T   T   T
 19.5295142849259946 13.1162471180417484 14.0645458950949624   T   T   T
 20.7251988329826808  8.9742743439232981 14.0645458950949660   T   T   T
 21.3230411070110328 11.3904251288257239 14.0645458950949624   T   T   T
 21.9208833810393777 13.8065759137281514 14.0645458950949624   T   T   T
  1.9928075800944867  2.0709863870592224 16.0968188426424561   T   T   T
  4.3841766762078747  2.7613151827456299 16.0968188426424561   T   T   T
  4.9820189502362222  5.1774659676480574 16.0968188426424526   T   T   T
  5.5798612242645653  7.5936167525504841 16.0968188426424526   T   T   T
  6.7755457723212604  3.4516439784320379 16.0968188426424561   T   T   T
  7.3733880463496062  5.8677947633344640 16.0968188426424526   T   T   T
  7.9712303203779511  8.2839455482368898 16.0968188426424526   T   T   T
  8.5690725944063004 10.7000963331393173 16.0968188426424490   T   T   T
  9.1669148684346471 13.1162471180417448 16.0968188426424526   T   T   T
  9.1669148684346471  4.1419727741184449 16.0968188426424561   T   T   T
  9.7647571424629938  6.5581235590208724 16.0968188426424490   T   T   T
 10.3625994164913404  8.9742743439232981 16.0968188426424526   T   T   T
 10.9604416905196853 11.3904251288257239 16.0968188426424490   T   T   T
 11.5582839645480320 13.8065759137281550 16.0968188426424490   T   T   T
 10.9604416905196853  2.4161507849024240 16.0968188426424561   T   T   T
 11.5582839645480338  4.8323015698048524 16.0968188426424561   T   T   T
 12.1561262385763804  7.2484523547072781 16.0968188426424561   T   T   T
 12.7539685126047289  9.6646031396097065 16.0968188426424526   T   T   T
 13.3518107866330773 12.0807539245121323 16.0968188426424490   T   T   T
  6.1777034982929138  1.0354931935296108 16.0968188426424561   T   T   T
 13.3518107866330755  3.1064795805888328 16.0968188426424561   T   T   T
 13.9496530606614186  5.5226303654912625 16.0968188426424490   T   T   T
 14.5474953346897635  7.9387811503936865 16.0968188426424526   T   T   T
 15.1453376087181173 10.3549319352961149 16.0968188426424526   T   T   T
 15.7431798827464569 12.7710827201985406 16.0968188426424454   T   T   T
  8.5690725944062969  1.7258219892160185 16.0968188426424526   T   T   T
 15.7431798827464551  3.7968083762752420 16.0968188426424490   T   T   T
 16.3410221567748088  6.2129591611776700 16.0968188426424526   T   T   T
 16.9388644308031537  8.6291099460800940 16.0968188426424490   T   T   T
 17.5367067048315022 11.0452607309825215 16.0968188426424526   T   T   T
 18.1345489788598471 13.4614115158849490 16.0968188426424490   T   T   T
 18.1345489788598471  4.4871371719616491 16.0968188426424561   T   T   T
 18.7323912528881955  6.9032879568640757 16.0968188426424561   T   T   T
 19.3302335269165440  9.3194387417665006 16.0968188426424561   T   T   T
 19.9280758009448853 11.7355895266689298 16.0968188426424490   T   T   T
 20.5259180749732337 14.1517403115713574 16.0968188426424454   T   T   T
  6.1777034982929164 10.0097675374529125 16.0968188426424490   T   T   T
 22.3194448970582684 12.4259183223553329 16.0968188426424561   T   T   T
 15.1453376087181155  1.3806575913728134 16.0968188426424526   T   T   T
  6.2175596498948078 10.7691292127079610 22.2968188426424447   T   T   T
  4.6631697374211054  8.0768469095309712 22.2968188426424447   T   T   T
  3.1087798249474039  5.3845646063539805 22.2968188426424447   T   T   T
  1.5543899124737020  2.6922823031769902 22.2968188426424447   T   T   T
  0.0000000000000000  0.0000000000000000 22.2968188426424447   T   T   T
  9.3263394748422108 10.7691292127079610 22.2968188426424447   T   T   T
  7.7719495623685066  8.0768469095309712 22.2968188426424447   T   T   T
  6.2175596498948060  5.3845646063539805 22.2968188426424447   T   T   T
  4.6631697374211036  2.6922823031769902 22.2968188426424447   T   T   T
  3.1087798249474021  0.0000000000000000 22.2968188426424447   T   T   T
 12.4351192997896121 10.7691292127079610 22.2968188426424447   T   T   T
 10.8807293873159079  8.0768469095309712 22.2968188426424447   T   T   T
  9.3263394748422073  5.3845646063539805 22.2968188426424447   T   T   T
  7.7719495623685049  2.6922823031769902 22.2968188426424447   T   T   T
  6.2175596498948043  0.0000000000000000 22.2968188426424447   T   T   T
 15.5438991247370115 10.7691292127079610 22.2968188426424447   T   T   T
 13.9895092122633091  8.0768469095309712 22.2968188426424447   T   T   T
 12.4351192997896085  5.3845646063539805 22.2968188426424447   T   T   T
 10.8807293873159097  2.6922823031769902 22.2968188426424447   T   T   T
  9.3263394748422073  0.0000000000000000 22.2968188426424447   T   T   T
 18.6526789496844145 10.7691292127079610 22.2968188426424447   T   T   T
 17.0982890372107121  8.0768469095309712 22.2968188426424447   T   T   T
 15.5438991247370097  5.3845646063539805 22.2968188426424447   T   T   T
 13.9895092122633109  2.6922823031769902 22.2968188426424447   T   T   T
 12.4351192997896085  0.0000000000000000 22.2968188426424447   T   T   T
  7.7719495623685084  9.8717017783156304 20.2968188426424518   T   T   T
  6.2175596498948078  7.1794194751386406 20.2968188426424518   T   T   T
  4.6631697374211054  4.4871371719616508 20.2968188426424518   T   T   T
  3.1087798249474026  1.7948548687846606 20.2968188426424518   T   T   T
  9.3263394748422108 12.5639840814926202 20.2968188426424447   T   T   T
 10.8807293873159097  9.8717017783156304 20.2968188426424518   T   T   T
  9.3263394748422090  7.1794194751386406 20.2968188426424518   T   T   T
  7.7719495623685049  4.4871371719616508 20.2968188426424518   T   T   T
  6.2175596498948043  1.7948548687846606 20.2968188426424518   T   T   T
 12.4351192997896121 12.5639840814926202 20.2968188426424447   T   T   T
 13.9895092122633127  9.8717017783156304 20.2968188426424518   T   T   T
 12.4351192997896121  7.1794194751386406 20.2968188426424518   T   T   T
 10.8807293873159097  4.4871371719616508 20.2968188426424518   T   T   T
  9.3263394748422108  1.7948548687846606 20.2968188426424518   T   T   T
 15.5438991247370133 12.5639840814926202 20.2968188426424447   T   T   T
 17.0982890372107157  9.8717017783156304 20.2968188426424518   T   T   T
 15.5438991247370133  7.1794194751386406 20.2968188426424518   T   T   T
 13.9895092122633109  4.4871371719616508 20.2968188426424518   T   T   T
 12.4351192997896138  1.7948548687846606 20.2968188426424518   T   T   T
 18.6526789496844181 12.5639840814926202 20.2968188426424518   T   T   T
 20.2070688621581169  9.8717017783156304 20.2968188426424518   T   T   T
 18.6526789496844181  7.1794194751386406 20.2968188426424518   T   T   T
 17.0982890372107050  4.4871371719616508 20.2968188426424518   T   T   T
 15.5438991247370115  1.7948548687846606 20.2968188426424518   T   T   T
 21.7614587746318158 12.5639840814926202 20.2968188426424518   T   T   T
  6.2175596498948069  8.9742743439233017 24.2968188426424518   T   T   T
  4.6631697374211054  6.2819920407463110 24.2968188426424518   T   T   T
  3.1087798249474039  3.5897097375693212 24.2968188426424518   T   T   T
  1.5543899124737015  0.8974274343923305 24.2968188426424518   T   T   T
  7.7719495623685084 11.6665566471002897 24.2968188426424447   T   T   T
  9.3263394748422108  8.9742743439233017 24.2968188426424518   T   T   T
  7.7719495623685066  6.2819920407463110 24.2968188426424518   T   T   T
  6.2175596498948051  3.5897097375693212 24.2968188426424518   T   T   T
  4.6631697374211045  0.8974274343923305 24.2968188426424518   T   T   T
 10.8807293873159097 11.6665566471002897 24.2968188426424447   T   T   T
 12.4351192997896121  8.9742743439233017 24.2968188426424518   T   T   T
 10.8807293873159079  6.2819920407463110 24.2968188426424518   T   T   T
  9.3263394748422073  3.5897097375693212 24.2968188426424518   T   T   T
  7.7719495623685058  0.8974274343923305 24.2968188426424518   T   T   T
 13.9895092122633127 11.6665566471002897 24.2968188426424518   T   T   T
 15.5438991247370097  8.9742743439233017 24.2968188426424518   T   T   T
 13.9895092122633109  6.2819920407463110 24.2968188426424518   T   T   T
 12.4351192997896085  3.5897097375693212 24.2968188426424518   T   T   T
 10.8807293873159079  0.8974274343923305 24.2968188426424518   T   T   T
 17.0982890372107157 11.6665566471002897 24.2968188426424518   T   T   T
 18.6526789496844145  8.9742743439233017 24.2968188426424518   T   T   T
 17.0982890372107121  6.2819920407463110 24.2968188426424518   T   T   T
 15.5438991247370097  3.5897097375693212 24.2968188426424518   T   T   T
 13.9895092122633091  0.8974274343923305 24.2968188426424518   T   T   T
 20.2070688621581169 11.6665566471002897 24.2968188426424518   T   T   T
  6.2175596498948069  8.9742743439233017 18.2968188426424589   T   T   T
  4.6631697374211054  6.2819920407463110 18.2968188426424589   T   T   T
  3.1087798249474039  3.5897097375693212 18.2968188426424589   T   T   T
  1.5543899124737015  0.8974274343923305 18.2968188426424589   T   T   T
  7.7719495623685084 11.6665566471002897 18.2968188426424518   T   T   T
  9.3263394748422108  8.9742743439233017 18.2968188426424589   T   T   T
  7.7719495623685066  6.2819920407463110 18.2968188426424589   T   T   T
  6.2175596498948051  3.5897097375693212 18.2968188426424589   T   T   T
  4.6631697374211045  0.8974274343923305 18.2968188426424589   T   T   T
 10.8807293873159097 11.6665566471002897 18.2968188426424518   T   T   T
 12.4351192997896121  8.9742743439233017 18.2968188426424589   T   T   T
 10.8807293873159079  6.2819920407463110 18.2968188426424589   T   T   T
  9.3263394748422073  3.5897097375693212 18.2968188426424589   T   T   T
  7.7719495623685058  0.8974274343923305 18.2968188426424589   T   T   T
 13.9895092122633127 11.6665566471002897 18.2968188426424589   T   T   T
 15.5438991247370097  8.9742743439233017 18.2968188426424589   T   T   T
 13.9895092122633109  6.2819920407463110 18.2968188426424589   T   T   T
 12.4351192997896085  3.5897097375693212 18.2968188426424589   T   T   T
 10.8807293873159079  0.8974274343923305 18.2968188426424589   T   T   T
 17.0982890372107157 11.6665566471002897 18.2968188426424589   T   T   T
 18.6526789496844145  8.9742743439233017 18.2968188426424589   T   T   T
 17.0982890372107121  6.2819920407463110 18.2968188426424589   T   T   T
 15.5438991247370097  3.5897097375693212 18.2968188426424589   T   T   T
 13.9895092122633091  0.8974274343923305 18.2968188426424589   T   T   T
 20.2070688621581169 11.6665566471002897 18.2968188426424589   T   T   T
 10.2818227673661635  6.7374839107702069 26.4068188426424513   T   T   T
 12.6818227673661621  6.7374839107702069 26.4068188426424513   T   T   T
