Ni Mo S  Au
 1.0000000000000000
    14.5133318021741644    0.0000000000000000    0.0000000000000009
     2.9880389004476271   24.3311739036449204    0.0000000000000015
     0.0000000000000000    0.0000000000000000   41.9778900000000164
 Ni  Mo  S   Au 
 228  82 164   2
Selective dynamics
Cartesian
 14.0864691021102217 23.4774485035170244 14.5144725000000037   T   T   T
 16.2207826024299528 22.1968604033251857 14.5144725000000037   T   T   T
  8.5372540012789244 23.9043112035809742 14.5144725000000037   T   T   T
 10.6715675015986555 22.6237231033891426 14.5144725000000037   T   T   T
 12.8058810019183813 21.3431350031972968 14.5144725000000037   T   T   T
 14.9401945022381177 20.0625469030054582 14.5144725000000037   T   T   T
  5.1223524007673582 23.0505858034530853 14.5144725000000037   T   T   T
  7.2566659010870858 21.7699977032612466 14.5144725000000037   T   T   T
  9.3909794014068133 20.4894096030694080 14.5144725000000037   T   T   T
 11.5252929017265462 19.2088215028775728 14.5144725000000037   T   T   T
 13.6596064020462755 17.9282334026857342 14.5144725000000037   T   T   T
 15.7939199023660031 16.6476453024938920 14.5144725000000037   T   T   T
  3.8417643005755178 20.9162723031333542 14.5144725000000037   T   T   T
  5.9760778008952471 19.6356842029415120 14.5144725000000037   T   T   T
  8.1103913012149746 18.3550961027496804 14.5144725000000037   T   T   T
 10.2447048015347075 17.0745080025578417 14.5144725000000037   T   T   T
 12.3790183018544386 15.7939199023659995 14.5144725000000037   T   T   T
 14.5133318021741697 14.5133318021741626 14.5144725000000037   T   T   T
  2.5611762003836791 18.7819588028136231 14.5144725000000037   T   T   T
  4.6954897007034102 17.5013707026217844 14.5144725000000037   T   T   T
  6.8298032010231395 16.2207826024299457 14.5144725000000037   T   T   T
  8.9641167013428671 14.9401945022381089 14.5144725000000037   T   T   T
 11.0984302016626017 13.6596064020462684 14.5144725000000037   T   T   T
 13.2327437019823257 12.3790183018544315 14.5144725000000037   T   T   T
 15.3670572023020586 11.0984302016625946 14.5144725000000037   T   T   T
  3.4149016005115702 15.3670572023020533 14.5144725000000037   T   T   T
  5.5492151008313000 14.0864691021102182 14.5144725000000037   T   T   T
  7.6835286011510320 12.8058810019183777 14.5144725000000037   T   T   T
  9.8178421014707595 11.5252929017265426 14.5144725000000037   T   T   T
 11.9521556017904906 10.2447048015347022 14.5144725000000037   T   T   T
 14.0864691021102217  8.9641167013428671 14.5144725000000037   T   T   T
  2.1343135003197320 13.2327437019823257 14.5144725000000019   T   T   T
  4.2686270006394622 11.9521556017904871 14.5144725000000037   T   T   T
  6.4029405009591907 10.6715675015986484 14.5144725000000037   T   T   T
  8.5372540012789226  9.3909794014068115 14.5144725000000037   T   T   T
 10.6715675015986537  8.1103913012149746 14.5144725000000037   T   T   T
 12.8058810019183795  6.8298032010231351 14.5144725000000037   T   T   T
 14.9401945022381089  5.5492151008312982 14.5144725000000037   T   T   T
  2.9880389004476235  9.8178421014707560 14.5144725000000019   T   T   T
  5.1223524007673538  8.5372540012789209 14.5144725000000019   T   T   T
  7.2566659010870849  7.2566659010870813 14.5144725000000019   T   T   T
  9.3909794014068151  5.9760778008952435 14.5144725000000037   T   T   T
 11.5252929017265409  4.6954897007034058 14.5144725000000037   T   T   T
 13.6596064020462755  3.4149016005115684 14.5144725000000037   T   T   T
  1.7074508002557851  7.6835286011510266 14.5144725000000019   T   T   T
  3.8417643005755160  6.4029405009591889 14.5144725000000019   T   T   T
  5.9760778008952453  5.1223524007673511 14.5144725000000019   T   T   T
  8.1103913012149746  3.8417643005755142 14.5144725000000019   T   T   T
 10.2447048015347058  2.5611762003836751 14.5144725000000019   T   T   T
 12.3790183018544351  1.2805881001918378 14.5144725000000019   T   T   T
  2.5611762003836769  4.2686270006394604 14.5144725000000019   T   T   T
  4.6954897007034075  2.9880389004476218 14.5144725000000019   T   T   T
  6.8298032010231378  1.7074508002557842 14.5144725000000019   T   T   T
  8.9641167013428689  0.4268627000639463 14.5144725000000019   T   T   T
  1.2805881001918384  2.1343135003197302 14.5144725000000019   T   T   T
  3.4149016005115689  0.8537254001278921 14.5144725000000019   T   T   T
  0.0000000000000000  0.0000000000000000 14.5144725000000019   T   T   T
 14.5133318021741680 21.7699977032612431 16.2744725000000088   T   T   T
 16.6476453024939026 20.4894096030694044 16.2744725000000088   T   T   T
  8.9641167013428671 22.1968604033251857 16.2744725000000052   T   T   T
 11.0984302016626017 20.9162723031333542 16.2744725000000088   T   T   T
 13.2327437019823293 19.6356842029415155 16.2744725000000088   T   T   T
 15.3670572023020586 18.3550961027496768 16.2744725000000088   T   T   T
  5.5492151008313026 21.3431350031973039 16.2744725000000052   T   T   T
  7.6835286011510302 20.0625469030054653 16.2744725000000052   T   T   T
  9.8178421014707631 18.7819588028136231 16.2744725000000052   T   T   T
 11.9521556017904924 17.5013707026217880 16.2744725000000052   T   T   T
 14.0864691021102200 16.2207826024299493 16.2744725000000052   T   T   T
 16.2207826024299493 14.9401945022381089 16.2744725000000088   T   T   T
  4.2686270006394631 19.2088215028775728 16.2744725000000052   T   T   T
  6.4029405009591915 17.9282334026857342 16.2744725000000052   T   T   T
  8.5372540012789209 16.6476453024938955 16.2744725000000052   T   T   T
 10.6715675015986537 15.3670572023020533 16.2744725000000052   T   T   T
 12.8058810019183866 14.0864691021102182 16.2744725000000052   T   T   T
 14.9401945022381124 12.8058810019183777 16.2744725000000052   T   T   T
  2.9880389004476253 17.0745080025578417 16.2744725000000052   T   T   T
  5.1223524007673555 15.7939199023659995 16.2744725000000052   T   T   T
  7.2566659010870840 14.5133318021741644 16.2744725000000052   T   T   T
  9.3909794014068133 13.2327437019823222 16.2744725000000052   T   T   T
 11.5252929017265480 11.9521556017904871 16.2744725000000052   T   T   T
 13.6596064020462720 10.6715675015986466 16.2744725000000052   T   T   T
  1.2805881001918400  9.3909794014068098 16.2744725000000052   T   T   T
  3.8417643005755169 13.6596064020462702 16.2744725000000052   T   T   T
  5.9760778008952462 12.3790183018544333 16.2744725000000052   T   T   T
  8.1103913012149764 11.0984302016625946 16.2744725000000052   T   T   T
 10.2447048015347040  9.8178421014707560 16.2744725000000052   T   T   T
 12.3790183018544369  8.5372540012789209 16.2744725000000052   T   T   T
 14.5133318021741662  7.2566659010870822 16.2744725000000052   T   T   T
  2.5611762003836782 11.5252929017265426 16.2744725000000052   T   T   T
  4.6954897007034067 10.2447048015347022 16.2744725000000052   T   T   T
  6.8298032010231378  8.9641167013428671 16.2744725000000052   T   T   T
  8.9641167013428689  7.6835286011510266 16.2744725000000052   T   T   T
 11.0984302016625964  6.4029405009591907 16.2744725000000052   T   T   T
 13.2327437019823275  5.1223524007673520 16.2744725000000052   T   T   T
  0.8537254001278940  3.8417643005755133 16.2744725000000052   T   T   T
  3.4149016005115698  8.1103913012149729 16.2744725000000052   T   T   T
  5.5492151008313000  6.8298032010231351 16.2744725000000052   T   T   T
  7.6835286011510293  5.5492151008312973 16.2744725000000052   T   T   T
  9.8178421014707560  4.2686270006394595 16.2744725000000052   T   T   T
 11.9521556017904889  2.9880389004476218 16.2744725000000052   T   T   T
 14.0864691021102217  1.7074508002557844 16.2744725000000052   T   T   T
  2.1343135003197315  5.9760778008952435 16.2744725000000052   T   T   T
  4.2686270006394613  4.6954897007034058 16.2744725000000052   T   T   T
  6.4029405009591915  3.4149016005115675 16.2744725000000052   T   T   T
  8.5372540012789209  2.1343135003197302 16.2744725000000052   T   T   T
 10.6715675015986520  0.8537254001278912 16.2744725000000052   T   T   T
 15.7939199023660066 23.9043112035809742 16.2744725000000088   T   T   T
  2.9880389004476227  2.5611762003836755 16.2744725000000052   T   T   T
  5.1223524007673529  1.2805881001918376 16.2744725000000052   T   T   T
  7.2566659010870840  0.0000000000000003 16.2744725000000052   T   T   T
 12.3790183018544369 23.0505858034530853 16.2744725000000088   T   T   T
  1.7074508002557842  0.4268627000639459 16.2744725000000052   T   T   T
  6.8298032010231413 23.4774485035170279 16.2744725000000052   T   T   T
  3.4149016005115715 22.6237231033891391 16.2744725000000052   T   T   T
 14.0864691021102217 23.4774485035170244 10.9944725000000059   F   F   F
 16.2207826024299528 22.1968604033251857 10.9944725000000059   F   F   F
  8.5372540012789244 23.9043112035809742 10.9944725000000059   F   F   F
 10.6715675015986555 22.6237231033891426 10.9944725000000059   F   F   F
 12.8058810019183813 21.3431350031972968 10.9944725000000059   F   F   F
 14.9401945022381177 20.0625469030054582 10.9944725000000059   F   F   F
  5.1223524007673582 23.0505858034530853 10.9944725000000059   F   F   F
  7.2566659010870858 21.7699977032612466 10.9944725000000059   F   F   F
  9.3909794014068133 20.4894096030694080 10.9944725000000059   F   F   F
 11.5252929017265462 19.2088215028775728 10.9944725000000059   F   F   F
 13.6596064020462755 17.9282334026857342 10.9944725000000059   F   F   F
 15.7939199023660031 16.6476453024938920 10.9944725000000059   F   F   F
  3.8417643005755178 20.9162723031333542 10.9944725000000059   F   F   F
  5.9760778008952471 19.6356842029415120 10.9944725000000059   F   F   F
  8.1103913012149746 18.3550961027496804 10.9944725000000059   F   F   F
 10.2447048015347075 17.0745080025578417 10.9944725000000059   F   F   F
 12.3790183018544386 15.7939199023659995 10.9944725000000059   F   F   F
 14.5133318021741697 14.5133318021741626 10.9944725000000059   F   F   F
  2.5611762003836791 18.7819588028136231 10.9944725000000059   F   F   F
  4.6954897007034102 17.5013707026217844 10.9944725000000059   F   F   F
  6.8298032010231395 16.2207826024299457 10.9944725000000059   F   F   F
  8.9641167013428671 14.9401945022381089 10.9944725000000059   F   F   F
 11.0984302016626017 13.6596064020462684 10.9944725000000059   F   F   F
 13.2327437019823257 12.3790183018544315 10.9944725000000059   F   F   F
 15.3670572023020586 11.0984302016625946 10.9944725000000059   F   F   F
  3.4149016005115702 15.3670572023020533 10.9944725000000059   F   F   F
  5.5492151008313000 14.0864691021102182 10.9944725000000059   F   F   F
  7.6835286011510320 12.8058810019183777 10.9944725000000059   F   F   F
  9.8178421014707595 11.5252929017265426 10.9944725000000059   F   F   F
 11.9521556017904906 10.2447048015347022 10.9944725000000059   F   F   F
 14.0864691021102217  8.9641167013428671 10.9944725000000059   F   F   F
  2.1343135003197320 13.2327437019823257 10.9944725000000041   F   F   F
  4.2686270006394622 11.9521556017904871 10.9944725000000059   F   F   F
  6.4029405009591907 10.6715675015986484 10.9944725000000059   F   F   F
  8.5372540012789226  9.3909794014068115 10.9944725000000059   F   F   F
 10.6715675015986537  8.1103913012149746 10.9944725000000059   F   F   F
 12.8058810019183795  6.8298032010231351 10.9944725000000059   F   F   F
 14.9401945022381089  5.5492151008312982 10.9944725000000059   F   F   F
  2.9880389004476235  9.8178421014707560 10.9944725000000041   F   F   F
  5.1223524007673538  8.5372540012789209 10.9944725000000041   F   F   F
  7.2566659010870849  7.2566659010870813 10.9944725000000041   F   F   F
  9.3909794014068151  5.9760778008952435 10.9944725000000059   F   F   F
 11.5252929017265409  4.6954897007034058 10.9944725000000059   F   F   F
 13.6596064020462755  3.4149016005115684 10.9944725000000059   F   F   F
  1.7074508002557851  7.6835286011510266 10.9944725000000041   F   F   F
  3.8417643005755160  6.4029405009591889 10.9944725000000041   F   F   F
  5.9760778008952453  5.1223524007673511 10.9944725000000041   F   F   F
  8.1103913012149746  3.8417643005755142 10.9944725000000041   F   F   F
 10.2447048015347058  2.5611762003836751 10.9944725000000041   F   F   F
 12.3790183018544351  1.2805881001918378 10.9944725000000041   F   F   F
  2.5611762003836769  4.2686270006394604 10.9944725000000041   F   F   F
  4.6954897007034075  2.9880389004476218 10.9944725000000041   F   F   F
  6.8298032010231378  1.7074508002557842 10.9944725000000041   F   F   F
  8.9641167013428689  0.4268627000639463 10.9944725000000041   F   F   F
  1.2805881001918384  2.1343135003197302 10.9944725000000041   F   F   F
  3.4149016005115689  0.8537254001278921 10.9944725000000041   F   F   F
  0.0000000000000000  0.0000000000000000 10.9944725000000041   F   F   F
 14.5133318021741680 21.7699977032612431 12.7544725000000057   F   F   F
 16.6476453024939026 20.4894096030694044 12.7544725000000057   F   F   F
  8.9641167013428671 22.1968604033251857 12.7544725000000057   F   F   F
 11.0984302016626017 20.9162723031333542 12.7544725000000057   F   F   F
 13.2327437019823293 19.6356842029415155 12.7544725000000057   F   F   F
 15.3670572023020586 18.3550961027496768 12.7544725000000057   F   F   F
  5.5492151008313026 21.3431350031973039 12.7544725000000057   F   F   F
  7.6835286011510302 20.0625469030054653 12.7544725000000057   F   F   F
  9.8178421014707631 18.7819588028136231 12.7544725000000057   F   F   F
 11.9521556017904924 17.5013707026217880 12.7544725000000057   F   F   F
 14.0864691021102200 16.2207826024299493 12.7544725000000057   F   F   F
 16.2207826024299493 14.9401945022381089 12.7544725000000057   F   F   F
  4.2686270006394631 19.2088215028775728 12.7544725000000057   F   F   F
  6.4029405009591915 17.9282334026857342 12.7544725000000057   F   F   F
  8.5372540012789209 16.6476453024938955 12.7544725000000057   F   F   F
 10.6715675015986537 15.3670572023020533 12.7544725000000057   F   F   F
 12.8058810019183866 14.0864691021102182 12.7544725000000057   F   F   F
 14.9401945022381124 12.8058810019183777 12.7544725000000057   F   F   F
  2.9880389004476253 17.0745080025578417 12.7544725000000057   F   F   F
  5.1223524007673555 15.7939199023659995 12.7544725000000057   F   F   F
  7.2566659010870840 14.5133318021741644 12.7544725000000057   F   F   F
  9.3909794014068133 13.2327437019823222 12.7544725000000057   F   F   F
 11.5252929017265480 11.9521556017904871 12.7544725000000057   F   F   F
 13.6596064020462720 10.6715675015986466 12.7544725000000057   F   F   F
  1.2805881001918400  9.3909794014068098 12.7544725000000039   F   F   F
  3.8417643005755169 13.6596064020462702 12.7544725000000057   F   F   F
  5.9760778008952462 12.3790183018544333 12.7544725000000057   F   F   F
  8.1103913012149764 11.0984302016625946 12.7544725000000057   F   F   F
 10.2447048015347040  9.8178421014707560 12.7544725000000057   F   F   F
 12.3790183018544369  8.5372540012789209 12.7544725000000057   F   F   F
 14.5133318021741662  7.2566659010870822 12.7544725000000057   F   F   F
  2.5611762003836782 11.5252929017265426 12.7544725000000039   F   F   F
  4.6954897007034067 10.2447048015347022 12.7544725000000039   F   F   F
  6.8298032010231378  8.9641167013428671 12.7544725000000057   F   F   F
  8.9641167013428689  7.6835286011510266 12.7544725000000057   F   F   F
 11.0984302016625964  6.4029405009591907 12.7544725000000057   F   F   F
 13.2327437019823275  5.1223524007673520 12.7544725000000057   F   F   F
  0.8537254001278940  3.8417643005755133 12.7544725000000039   F   F   F
  3.4149016005115698  8.1103913012149729 12.7544725000000039   F   F   F
  5.5492151008313000  6.8298032010231351 12.7544725000000039   F   F   F
  7.6835286011510293  5.5492151008312973 12.7544725000000039   F   F   F
  9.8178421014707560  4.2686270006394595 12.7544725000000039   F   F   F
 11.9521556017904889  2.9880389004476218 12.7544725000000057   F   F   F
 14.0864691021102217  1.7074508002557844 12.7544725000000057   F   F   F
  2.1343135003197315  5.9760778008952435 12.7544725000000039   F   F   F
  4.2686270006394613  4.6954897007034058 12.7544725000000039   F   F   F
  6.4029405009591915  3.4149016005115675 12.7544725000000039   F   F   F
  8.5372540012789209  2.1343135003197302 12.7544725000000039   F   F   F
 10.6715675015986520  0.8537254001278912 12.7544725000000039   F   F   F
 15.7939199023660066 23.9043112035809742 12.7544725000000057   F   F   F
  2.9880389004476227  2.5611762003836755 12.7544725000000039   F   F   F
  5.1223524007673529  1.2805881001918376 12.7544725000000039   F   F   F
  7.2566659010870840  0.0000000000000003 12.7544725000000039   F   F   F
 12.3790183018544369 23.0505858034530853 12.7544725000000057   F   F   F
  1.7074508002557842  0.4268627000639459 12.7544725000000039   F   F   F
  6.8298032010231413 23.4774485035170279 12.7544725000000057   F   F   F
  3.4149016005115715 22.6237231033891391 12.7544725000000057   F   F   F
  5.7643816651248425 21.9574008400527205 29.1834175000000080   T   T   T
  4.8377772674250545  0.0000000001780321 29.1834175000000080   T   T   T
  4.7544869844857507 16.6164114465696890 29.1834175000000080   T   T   T
  6.8159214872335863 18.9901845103399225 29.1834175000000080   T   T   T
  8.8773559899814263 21.3639575741101631 29.1834175000000080   T   T   T
 10.9387904927292645 23.7377306378804001 29.1834175000000116   T   T   T
  3.7445923038466562 11.2754220530866576 29.1834175000000080   T   T   T
  5.8060268065944944 13.6491951168568910 29.1834175000000080   T   T   T
  7.8674613093423309 16.0229681806271280 29.1834175000000080   T   T   T
  9.9288958120901718 18.3967412443973686 29.1834175000000080   T   T   T
 11.9903303148380118 20.7705143081676020 29.1834175000000116   T   T   T
 14.0517648175858465 23.1442873719378390 29.1834175000000116   T   T   T
  2.7346976232075630  5.9344326596036225 29.1834175000000080   T   T   T
  4.7961321259554035  8.3082057233738613 29.1834175000000080   T   T   T
  6.8575666287032373 10.6819787871440965 29.1834175000000080   T   T   T
  8.9190011314510755 13.0557518509143318 29.1834175000000080   T   T   T
 10.9804356341989156 15.4295249146845723 29.1834175000000080   T   T   T
 13.0418701369467538 17.8032979784548040 29.1834175000000080   T   T   T
 15.1033046396945885 20.1770710422250410 29.1834175000000116   T   T   T
 17.1647391424424285 22.5508441059952780 29.1834175000000116   T   T   T
  1.7248029425684703  0.5934432661205918 29.1834175000000080   T   T   T
  3.7862374453163081  2.9672163298908281 29.1834175000000080   T   T   T
  5.8476719480641455  5.3409893936610651 29.1834175000000080   T   T   T
  7.9091064508119810  7.7147624574313012 29.1834175000000080   T   T   T
  9.9705409535598211 10.0885355212015373 29.1834175000000080   T   T   T
 12.0319754563076629 12.4623085849717743 29.1834175000000080   T   T   T
 14.0934099590555011 14.8360816487420095 29.1834175000000080   T   T   T
 16.1548444618033358 17.2098547125122501 29.1834175000000116   T   T   T
  3.7029471623770092 19.5836277762824835 29.1834175000000080   T   T   T
  6.8992117701728901  2.3737730639482697 29.1834175000000080   T   T   T
  8.9606462729207266  4.7475461277185067 29.1834175000000080   T   T   T
 11.0220807756685666  7.1213191914887437 29.1834175000000080   T   T   T
 13.0835152784164066  9.4950922552589798 29.1834175000000080   T   T   T
 15.1449497811642448 11.8688653190292186 29.1834175000000080   T   T   T
  2.6930524817379160 14.2426383827994538 29.1834175000000080   T   T   T
 10.0121860950294703  1.7803297980057118 29.1834175000000080   T   T   T
 12.0736205977773086  4.1541028617759483 29.1834175000000080   T   T   T
 14.1350551005251486  6.5278759255461845 29.1834175000000080   T   T   T
  1.6831578010988233  8.9016489893164223 29.1834175000000080   T   T   T
 13.1251604198860523  1.1868865320631541 29.1834175000000080   T   T   T
  0.6732631204597297  3.5606595958333909 29.1834175000000080   T   T   T
  5.4277501048444856 20.1770710418689774 23.0359175000000107   T   T   T
  7.4891846075923230 22.5508441056392108 23.0359175000000107   T   T   T
  4.4178554242053911 14.8360816483859441 23.0359175000000107   T   T   T
  6.4792899269532320 17.2098547121561793 23.0359175000000107   T   T   T
  8.5407244297010685 19.5836277759264128 23.0359175000000107   T   T   T
 10.6021589324489085 21.9574008396966533 23.0359175000000143   T   T   T
  3.4079607435662997  9.4950922549029109 23.0359175000000107   T   T   T
  5.4693952463141358 11.8688653186731479 23.0359175000000107   T   T   T
  7.5308297490619776 14.2426383824433831 23.0359175000000107   T   T   T
  9.5922642518098122 16.6164114462136219 23.0359175000000107   T   T   T
 11.6536987545576487 18.9901845099838589 23.0359175000000107   T   T   T
 13.7151332573054852 21.3639575737540923 23.0359175000000143   T   T   T
  2.3980660629272075  4.1541028614198794 23.0359175000000107   T   T   T
  4.4595005656750448  6.5278759251901164 23.0359175000000107   T   T   T
  6.5209350684228804  8.9016489889603534 23.0359175000000107   T   T   T
  8.5823695711707195 11.2754220527305886 23.0359175000000107   T   T   T
 10.6438040739185560 13.6491951165008274 23.0359175000000107   T   T   T
 12.7052385766663942 16.0229681802710608 23.0359175000000107   T   T   T
 14.7666730794142289 18.3967412440413014 23.0359175000000143   T   T   T
 16.8281075821620725 20.7705143078115348 23.0359175000000178   T   T   T
  4.3762102827357428 23.1442873715817683 23.0359175000000107   T   T   T
  3.4496058850359517  1.1868865317070847 23.0359175000000107   T   T   T
  5.5110403877837895  3.5606595954773219 23.0359175000000107   T   T   T
  7.5724748905316259  5.9344326592475589 23.0359175000000107   T   T   T
  9.6339093932794668  8.3082057230177941 23.0359175000000107   T   T   T
 11.6953438960273033 10.6819787867880311 23.0359175000000107   T   T   T
 13.7567783987751415 13.0557518505582681 23.0359175000000107   T   T   T
 15.8182129015229762 15.4295249143285051 23.0359175000000178   T   T   T
  3.3663156020966500 17.8032979780987404 23.0359175000000143   T   T   T
  6.5625802098925332  0.5934432657645271 23.0359175000000107   T   T   T
  8.6240147126403688  2.9672163295347631 23.0359175000000107   T   T   T
 10.6854492153882088  5.3409893933049997 23.0359175000000107   T   T   T
 12.7468837181360435  7.7147624570752367 23.0359175000000107   T   T   T
 14.8083182208838853 10.0885355208454754 23.0359175000000143   T   T   T
  2.3564209214575573 12.4623085846157124 23.0359175000000143   T   T   T
 12.6635934351967432 24.3311739034668868 23.0359175000000143   T   T   T
 11.7369890374969525  2.3737730635922052 23.0359175000000107   T   T   T
 13.7984235402447872  4.7475461273624422 23.0359175000000143   T   T   T
  1.3465262408184637  7.1213191911326783 23.0359175000000143   T   T   T
 15.7765677600533234 23.7377306375243329 23.0359175000000143   T   T   T
  0.3366315601793705  1.7803297976496477 23.0359175000000143   T   T   T
  5.7643816651248443 21.9574008400527205 21.4498625000000054   T   T   T
  4.8377772674250554  0.0000000001780319 21.4498625000000054   T   T   T
  4.7544869844857516 16.6164114465696890 21.4498625000000054   T   T   T
  6.8159214872335880 18.9901845103399225 21.4498625000000054   T   T   T
  8.8773559899814263 21.3639575741101631 21.4498625000000054   T   T   T
 10.9387904927292645 23.7377306378804001 21.4498625000000089   T   T   T
  3.7445923038466580 11.2754220530866576 21.4498625000000054   T   T   T
  5.8060268065944953 13.6491951168568910 21.4498625000000054   T   T   T
  7.8674613093423318 16.0229681806271280 21.4498625000000054   T   T   T
  9.9288958120901718 18.3967412443973686 21.4498625000000054   T   T   T
 11.9903303148380118 20.7705143081676020 21.4498625000000089   T   T   T
 14.0517648175858465 23.1442873719378390 21.4498625000000089   T   T   T
  2.7346976232075644  5.9344326596036217 21.4498625000000054   T   T   T
  4.7961321259554044  8.3082057233738613 21.4498625000000054   T   T   T
  6.8575666287032382 10.6819787871440965 21.4498625000000054   T   T   T
  8.9190011314510755 13.0557518509143318 21.4498625000000054   T   T   T
 10.9804356341989156 15.4295249146845723 21.4498625000000054   T   T   T
 13.0418701369467538 17.8032979784548040 21.4498625000000054   T   T   T
 15.1033046396945885 20.1770710422250410 21.4498625000000089   T   T   T
 17.1647391424424285 22.5508441059952780 21.4498625000000125   T   T   T
  1.7248029425684712  0.5934432661205916 21.4498625000000054   T   T   T
  3.7862374453163095  2.9672163298908281 21.4498625000000054   T   T   T
  5.8476719480641464  5.3409893936610642 21.4498625000000054   T   T   T
  7.9091064508119819  7.7147624574313012 21.4498625000000054   T   T   T
  9.9705409535598211 10.0885355212015373 21.4498625000000054   T   T   T
 12.0319754563076629 12.4623085849717743 21.4498625000000054   T   T   T
 14.0934099590555011 14.8360816487420095 21.4498625000000054   T   T   T
 16.1548444618033358 17.2098547125122501 21.4498625000000125   T   T   T
  3.7029471623770100 19.5836277762824835 21.4498625000000089   T   T   T
  6.8992117701728910  2.3737730639482697 21.4498625000000054   T   T   T
  8.9606462729207266  4.7475461277185058 21.4498625000000054   T   T   T
 11.0220807756685666  7.1213191914887437 21.4498625000000054   T   T   T
 13.0835152784164066  9.4950922552589798 21.4498625000000054   T   T   T
 15.1449497811642448 11.8688653190292186 21.4498625000000089   T   T   T
  2.6930524817379169 14.2426383827994538 21.4498625000000089   T   T   T
 10.0121860950294703  1.7803297980057118 21.4498625000000054   T   T   T
 12.0736205977773086  4.1541028617759475 21.4498625000000054   T   T   T
 14.1350551005251486  6.5278759255461845 21.4498625000000089   T   T   T
  1.6831578010988242  8.9016489893164223 21.4498625000000089   T   T   T
 13.1251604198860523  1.1868865320631539 21.4498625000000089   T   T   T
  0.6732631204597306  3.5606595958333900 21.4498625000000089   T   T   T
  5.4277501048444847 20.1770710418689774 27.5973625000000062   T   T   T
  7.4891846075923230 22.5508441056392108 27.5973625000000062   T   T   T
  4.4178554242053911 14.8360816483859441 27.5973625000000062   T   T   T
  6.4792899269532311 17.2098547121561793 27.5973625000000062   T   T   T
  8.5407244297010667 19.5836277759264128 27.5973625000000062   T   T   T
 10.6021589324489085 21.9574008396966533 27.5973625000000098   T   T   T
  3.4079607435662993  9.4950922549029109 27.5973625000000062   T   T   T
  5.4693952463141349 11.8688653186731479 27.5973625000000062   T   T   T
  7.5308297490619776 14.2426383824433831 27.5973625000000062   T   T   T
  9.5922642518098122 16.6164114462136219 27.5973625000000062   T   T   T
 11.6536987545576487 18.9901845099838589 27.5973625000000062   T   T   T
 13.7151332573054852 21.3639575737540923 27.5973625000000098   T   T   T
  2.3980660629272070  4.1541028614198794 27.5973625000000062   T   T   T
  4.4595005656750448  6.5278759251901164 27.5973625000000062   T   T   T
  6.5209350684228795  8.9016489889603534 27.5973625000000062   T   T   T
  8.5823695711707177 11.2754220527305886 27.5973625000000062   T   T   T
 10.6438040739185560 13.6491951165008274 27.5973625000000062   T   T   T
 12.7052385766663942 16.0229681802710608 27.5973625000000062   T   T   T
 14.7666730794142289 18.3967412440413014 27.5973625000000098   T   T   T
 16.8281075821620725 20.7705143078115348 27.5973625000000098   T   T   T
  4.3762102827357428 23.1442873715817683 27.5973625000000062   T   T   T
  3.4496058850359512  1.1868865317070849 27.5973625000000062   T   T   T
  5.5110403877837886  3.5606595954773219 27.5973625000000062   T   T   T
  7.5724748905316250  5.9344326592475589 27.5973625000000062   T   T   T
  9.6339093932794668  8.3082057230177941 27.5973625000000062   T   T   T
 11.6953438960273033 10.6819787867880311 27.5973625000000062   T   T   T
 13.7567783987751415 13.0557518505582681 27.5973625000000062   T   T   T
 15.8182129015229762 15.4295249143285051 27.5973625000000098   T   T   T
  3.3663156020966492 17.8032979780987404 27.5973625000000062   T   T   T
  6.5625802098925323  0.5934432657645272 27.5973625000000062   T   T   T
  8.6240147126403688  2.9672163295347631 27.5973625000000062   T   T   T
 10.6854492153882088  5.3409893933049997 27.5973625000000062   T   T   T
 12.7468837181360435  7.7147624570752367 27.5973625000000062   T   T   T
 14.8083182208838853 10.0885355208454754 27.5973625000000062   T   T   T
  2.3564209214575564 12.4623085846157124 27.5973625000000062   T   T   T
 12.6635934351967432 24.3311739034668868 27.5973625000000098   T   T   T
 11.7369890374969525  2.3737730635922052 27.5973625000000062   T   T   T
 13.7984235402447872  4.7475461273624422 27.5973625000000062   T   T   T
  1.3465262408184631  7.1213191911326783 27.5973625000000062   T   T   T
 15.7765677600533234 23.7377306375243329 27.5973625000000098   T   T   T
  0.3366315601793699  1.7803297976496477 27.5973625000000062   T   T   T
  5.4277501048444865 20.1770710418689774 18.4744725000000045   T   T   T
  7.4891846075923230 22.5508441056392108 18.4744725000000045   T   T   T
  4.4178554242053920 14.8360816483859441 18.4744725000000045   T   T   T
  6.4792899269532329 17.2098547121561793 18.4744725000000045   T   T   T
  8.5407244297010685 19.5836277759264128 18.4744725000000045   T   T   T
 10.6021589324489085 21.9574008396966533 18.4744725000000081   T   T   T
  3.4079607435663006  9.4950922549029109 18.4744725000000045   T   T   T
  5.4693952463141366 11.8688653186731479 18.4744725000000045   T   T   T
  7.5308297490619793 14.2426383824433831 18.4744725000000045   T   T   T
  9.5922642518098122 16.6164114462136219 18.4744725000000045   T   T   T
 11.6536987545576487 18.9901845099838589 18.4744725000000045   T   T   T
 13.7151332573054852 21.3639575737540923 18.4744725000000081   T   T   T
  2.3980660629272084  4.1541028614198785 18.4744725000000045   T   T   T
  4.4595005656750466  6.5278759251901164 18.4744725000000045   T   T   T
  6.5209350684228813  8.9016489889603534 18.4744725000000045   T   T   T
  8.5823695711707195 11.2754220527305886 18.4744725000000045   T   T   T
 10.6438040739185560 13.6491951165008274 18.4744725000000045   T   T   T
 12.7052385766663942 16.0229681802710608 18.4744725000000045   T   T   T
 14.7666730794142289 18.3967412440413014 18.4744725000000081   T   T   T
 16.8281075821620725 20.7705143078115348 18.4744725000000152   T   T   T
  4.3762102827357428 23.1442873715817683 18.4744725000000045   T   T   T
  3.4496058850359521  1.1868865317070845 18.4744725000000045   T   T   T
  5.5110403877837904  3.5606595954773210 18.4744725000000045   T   T   T
  7.5724748905316268  5.9344326592475580 18.4744725000000045   T   T   T
  9.6339093932794668  8.3082057230177941 18.4744725000000045   T   T   T
 11.6953438960273033 10.6819787867880311 18.4744725000000045   T   T   T
 13.7567783987751415 13.0557518505582681 18.4744725000000045   T   T   T
 15.8182129015229762 15.4295249143285051 18.4744725000000152   T   T   T
  3.3663156020966500 17.8032979780987404 18.4744725000000081   T   T   T
  6.5625802098925341  0.5934432657645271 18.4744725000000045   T   T   T
  8.6240147126403688  2.9672163295347631 18.4744725000000045   T   T   T
 10.6854492153882088  5.3409893933049997 18.4744725000000045   T   T   T
 12.7468837181360435  7.7147624570752367 18.4744725000000045   T   T   T
 14.8083182208838853 10.0885355208454754 18.4744725000000116   T   T   T
  2.3564209214575578 12.4623085846157124 18.4744725000000081   T   T   T
 12.6635934351967432 24.3311739034668868 18.4744725000000081   T   T   T
 11.7369890374969525  2.3737730635922052 18.4744725000000045   T   T   T
 13.7984235402447872  4.7475461273624413 18.4744725000000116   T   T   T
  1.3465262408184642  7.1213191911326783 18.4744725000000081   T   T   T
 15.7765677600533234 23.7377306375243329 18.4744725000000116   T   T   T
  0.3366315601793711  1.7803297976496477 18.4744725000000081   T   T   T
  5.7643816651248443 21.9574008400527205 24.6219725000000125   T   T   T
  4.8377772674250554  0.0000000001780320 24.6219725000000125   T   T   T
  4.7544869844857516 16.6164114465696890 24.6219725000000125   T   T   T
  6.8159214872335880 18.9901845103399225 24.6219725000000125   T   T   T
  8.8773559899814263 21.3639575741101631 24.6219725000000125   T   T   T
 10.9387904927292645 23.7377306378804001 24.6219725000000160   T   T   T
  3.7445923038466580 11.2754220530866558 24.6219725000000125   T   T   T
  5.8060268065944953 13.6491951168568910 24.6219725000000125   T   T   T
  7.8674613093423318 16.0229681806271280 24.6219725000000125   T   T   T
  9.9288958120901718 18.3967412443973686 24.6219725000000125   T   T   T
 11.9903303148380118 20.7705143081676020 24.6219725000000054   T   T   T
 14.0517648175858465 23.1442873719378390 24.6219725000000054   T   T   T
  2.7346976232075648  5.9344326596036225 24.6219725000000125   T   T   T
  4.7961321259554044  8.3082057233738613 24.6219725000000125   T   T   T
  6.8575666287032382 10.6819787871440965 24.6219725000000125   T   T   T
  8.9190011314510755 13.0557518509143318 24.6219725000000125   T   T   T
 10.9804356341989156 15.4295249146845723 24.6219725000000018   T   T   T
 13.0418701369467538 17.8032979784548040 24.6219725000000018   T   T   T
 15.1033046396945885 20.1770710422250410 24.6219725000000054   T   T   T
 17.1647391424424285 22.5508441059952780 24.6219725000000160   T   T   T
  1.7248029425684712  0.5934432661205922 24.6219725000000125   T   T   T
  3.7862374453163086  2.9672163298908290 24.6219725000000125   T   T   T
  5.8476719480641455  5.3409893936610651 24.6219725000000125   T   T   T
  7.9091064508119819  7.7147624574313012 24.6219725000000125   T   T   T
  9.9705409535598211 10.0885355212015391 24.6219725000000018   T   T   T
 12.0319754563076611 12.4623085849717778 24.6219725000000018   T   T   T
 14.0934099590555011 14.8360816487420095 24.6219725000000018   T   T   T
 16.1548444618033358 17.2098547125122501 24.6219725000000160   T   T   T
  3.7029471623770096 19.5836277762824835 24.6219725000000125   T   T   T
  6.8992117701728910  2.3737730639482706 24.6219725000000125   T   T   T
  8.9606462729207301  4.7475461277185076 24.6219725000000018   T   T   T
 11.0220807756685666  7.1213191914887437 24.6219725000000018   T   T   T
 13.0835152784164066  9.4950922552589798 24.6219725000000018   T   T   T
 15.1449497811642448 11.8688653190292186 24.6219725000000125   T   T   T
  2.6930524817379169 14.2426383827994556 24.6219725000000125   T   T   T
 10.0121860950294703  1.7803297980057118 24.6219725000000018   T   T   T
 12.0736205977773086  4.1541028617759492 24.6219725000000018   T   T   T
 14.1350551005251486  6.5278759255461871 24.6219725000000125   T   T   T
  1.6831578010988237  8.9016489893164223 24.6219725000000125   T   T   T
 13.1251604198860523  1.1868865320631545 24.6219725000000125   T   T   T
  0.6732631204597305  3.5606595958333909 24.6219725000000125   T   T   T
  7.5074587487727742 12.0629237707944217 30.9834175000000123   T   T   T
  9.9074587487727737 12.0629237707944217 30.9834175000000123   T   T   T
