Mo S  Mo S  Mo S  Mo S  Mo S  Mo S  Mo S  Mo S  Mo S  Mo S  Mo S  Mo S  Mo S  Mo S  Mo S  Mo S  Mo S  Mo S  Mo S  Mo S  Mo S  Mo S  Mo S  Mo S 
 1.0000000000000000
    57.3800000000000026    0.0000000000000000    0.0000000000000000
     0.0000000000000000   10.9465611038353039    0.0000000000000000
     0.0000000000000000    0.0000000000000000   23.1900000000000048
 Mo  S   Mo  S   Mo  S   Mo  S   Mo  S   Mo  S   Mo  S   Mo  S   Mo  S   Mo  S   Mo  S   Mo  S   Mo  S   Mo  S   Mo  S   Mo  S   Mo  S   Mo  S   Mo  S   Mo  S   Mo  S   Mo  S   Mo  S   Mo  S  
   1   1   1   1   1   1   1   1   1   2   1   2   1   2   1   2   1   2   1   2   1   2   1   2   1   2   1   2   1   2   1   2   1   2   1   2   1   2   1   2   1   1   1   1   1   1   1   1
Selective dynamics
Cartesian
 20.0000000000000000  0.0000000000000000 11.5949999999999989   F   F   F
 21.5799999999999983  0.9122134253196086 13.1900000000000048   T   T   T
 21.5799999999999983  2.7366402759588255 11.5949999999999989   F   F   F
 20.0000000000000000  3.6488537012784343 13.1900000000000048   T   T   T
 20.0000000000000000  5.4732805519176519 11.5949999999999989   F   F   F
 21.5799999999999983  6.3854939772372603 13.1900000000000048   T   T   T
 21.5799999999999983  8.2099208278764770 11.5949999999999989   F   F   F
 20.0000000000000000  9.1221342531960872 13.1900000000000048   T   T   T
 23.1600000000000001  0.0000000000000000 11.5949999999999989   F   F   F
 24.7400000000000020  0.9122134253196086 13.1900000000000048   T   T   T
 24.7400000000000020  0.9122134253196086 10.0000000000000000   F   F   F
 24.7400000000000020  2.7366402759588255 11.5949999999999989   F   F   F
 23.1600000000000001  3.6488537012784343 13.1900000000000048   T   T   T
 23.1600000000000001  3.6488537012784343 10.0000000000000000   F   F   F
 23.1600000000000001  5.4732805519176519 11.5949999999999989   F   F   F
 24.7400000000000020  6.3854939772372603 13.1900000000000048   T   T   T
 24.7400000000000020  6.3854939772372603 10.0000000000000000   F   F   F
 24.7400000000000020  8.2099208278764770 11.5949999999999989   F   F   F
 23.1600000000000001  9.1221342531960872 13.1900000000000048   T   T   T
 23.1600000000000001  9.1221342531960872 10.0000000000000000   F   F   F
 26.3200000000000003  0.0000000000000000 11.5949999999999989   F   F   F
 27.8999999999999986  0.9122134253196086 13.1900000000000048   T   T   T
 27.8999999999999986  0.9122134253196086 10.0000000000000000   F   F   F
 27.8999999999999986  2.7366402759588255 11.5949999999999989   F   F   F
 26.3200000000000003  3.6488537012784343 13.1900000000000048   T   T   T
 26.3200000000000003  3.6488537012784343 10.0000000000000000   F   F   F
 26.3200000000000003  5.4732805519176519 11.5949999999999989   F   F   F
 27.8999999999999986  6.3854939772372603 13.1900000000000048   T   T   T
 27.8999999999999986  6.3854939772372603 10.0000000000000000   F   F   F
 27.8999999999999986  8.2099208278764770 11.5949999999999989   F   F   F
 26.3200000000000003  9.1221342531960872 13.1900000000000048   T   T   T
 26.3200000000000003  9.1221342531960872 10.0000000000000000   F   F   F
 29.4800000000000004  0.0000000000000000 11.5949999999999989   F   F   F
 31.0600000000000023  0.9122134253196086 13.1900000000000048   T   T   T
 31.0600000000000023  0.9122134253196086 10.0000000000000000   F   F   F
 31.0600000000000023  2.7366402759588255 11.5949999999999989   F   F   F
 29.4800000000000004  3.6488537012784343 13.1900000000000048   T   T   T
 29.4800000000000004  3.6488537012784343 10.0000000000000000   F   F   F
 29.4800000000000004  5.4732805519176519 11.5949999999999989   F   F   F
 31.0600000000000023  6.3854939772372603 13.1900000000000048   T   T   T
 31.0600000000000023  6.3854939772372603 10.0000000000000000   F   F   F
 31.0600000000000023  8.2099208278764770 11.5949999999999989   F   F   F
 29.4800000000000004  9.1221342531960872 13.1900000000000048   T   T   T
 29.4800000000000004  9.1221342531960872 10.0000000000000000   F   F   F
 32.6400000000000006  0.0000000000000000 11.5949999999999989   F   F   F
 34.2199999999999989  0.9122134253196086 13.1900000000000048   T   T   T
 34.2199999999999989  0.9122134253196086 10.0000000000000000   F   F   F
 34.2199999999999989  2.7366402759588255 11.5949999999999989   F   F   F
 32.6400000000000006  3.6488537012784343 13.1900000000000048   T   T   T
 32.6400000000000006  3.6488537012784343 10.0000000000000000   F   F   F
 32.6400000000000006  5.4732805519176519 11.5949999999999989   F   F   F
 34.2199999999999989  6.3854939772372603 13.1900000000000048   T   T   T
 34.2199999999999989  6.3854939772372603 10.0000000000000000   F   F   F
 34.2199999999999989  8.2099208278764770 11.5949999999999989   F   F   F
 32.6400000000000006  9.1221342531960872 13.1900000000000048   T   T   T
 32.6400000000000006  9.1221342531960872 10.0000000000000000   F   F   F
 35.7999999999999972  0.0000000000000000 11.5949999999999989   F   F   F
 37.3799999999999955  0.9122134253196086 13.1900000000000048   T   T   T
 37.3799999999999955  2.7366402759588255 11.5949999999999989   F   F   F
 35.7999999999999972  3.6488537012784343 13.1900000000000048   T   T   T
 35.7999999999999972  5.4732805519176519 11.5949999999999989   F   F   F
 37.3799999999999955  6.3854939772372603 13.1900000000000048   T   T   T
 37.3799999999999955  8.2099208278764770 11.5949999999999989   F   F   F
 35.7999999999999972  9.1221342531960872 13.1900000000000048   T   T   T
