Ni Mo S 
 1.0000000000000000
    16.6968260456890434    0.0000000000000000    0.0000000000000010
     0.0000000000000036   22.2624347275853900    0.0000000000000014
     0.0000000000000000    0.0000000000000000   37.6207514000000032
 Ni  Mo  S  
 240  84 168
Selective dynamics
Cartesian
 13.3574608365512368 21.1493129912061200 13.5200000000000014   T   T   T
 15.5837043093097751 20.0361912548268535 13.5200000000000014   T   T   T
  7.7918521546548885 21.1493129912061271 13.5200000000000014   T   T   T
 10.0180956274134267 20.0361912548268535 13.5200000000000014   T   T   T
 12.2443391001719704 18.9230695184475834 13.5200000000000014   T   T   T
 14.4705825729305015 17.8099477820683134 13.5200000000000014   T   T   T
  2.2262434727585450 21.1493129912061235 13.5200000000000014   T   T   T
  4.4524869455170837 20.0361912548268535 13.5200000000000014   T   T   T
  6.6787304182756184 18.9230695184475834 13.5200000000000014   T   T   T
  8.9049738910341585 17.8099477820683134 13.5200000000000014   T   T   T
 11.1312173637926985 16.6968260456890434 13.5200000000000014   T   T   T
 13.3574608365512368 15.5837043093097751 13.5200000000000014   T   T   T
 15.5837043093097716 14.4705825729305069 13.5200000000000014   T   T   T
  1.1131217363792743 18.9230695184475834 13.5200000000000014   T   T   T
  3.3393652091378105 17.8099477820683170 13.5200000000000014   T   T   T
  5.5656086818963493 16.6968260456890505 13.5200000000000014   T   T   T
  7.7918521546548876 15.5837043093097769 13.5200000000000014   T   T   T
 10.0180956274134232 14.4705825729305069 13.5200000000000014   T   T   T
 12.2443391001719686 13.3574608365512386 13.5200000000000014   T   T   T
 14.4705825729305069 12.2443391001719650 13.5200000000000014   T   T   T
  0.0000000000000036 16.6968260456890469 13.5200000000000014   T   T   T
  2.2262434727585423 15.5837043093097751 13.5200000000000014   T   T   T
  4.4524869455170819 14.4705825729305086 13.5200000000000014   T   T   T
  6.6787304182756184 13.3574608365512368 13.5200000000000014   T   T   T
  8.9049738910341567 12.2443391001719704 13.5200000000000014   T   T   T
 11.1312173637926985 11.1312173637926968 13.5200000000000014   T   T   T
 13.3574608365512351 10.0180956274134303 13.5200000000000014   T   T   T
 15.5837043093097734  8.9049738910341603 13.5200000000000014   T   T   T
  1.1131217363792711 13.3574608365512333 13.5199999999999996   T   T   T
  3.3393652091378101 12.2443391001719704 13.5200000000000014   T   T   T
  5.5656086818963484 11.1312173637926950 13.5200000000000014   T   T   T
  7.7918521546548876 10.0180956274134267 13.5200000000000014   T   T   T
 10.0180956274134267  8.9049738910341567 13.5200000000000014   T   T   T
 12.2443391001719668  7.7918521546548858 13.5200000000000014   T   T   T
 14.4705825729305051  6.6787304182756184 13.5200000000000014   T   T   T
  0.0000000000000023 11.1312173637926968 13.5199999999999996   T   T   T
  2.2262434727585418 10.0180956274134267 13.5199999999999996   T   T   T
  4.4524869455170792  8.9049738910341567 13.5199999999999996   T   T   T
  6.6787304182756184  7.7918521546548876 13.5199999999999996   T   T   T
  8.9049738910341585  6.6787304182756184 13.5200000000000014   T   T   T
 11.1312173637926950  5.5656086818963475 13.5200000000000014   T   T   T
 13.3574608365512315  4.4524869455170792 13.5200000000000014   T   T   T
 15.5837043093097734  3.3393652091378092 13.5200000000000014   T   T   T
  1.1131217363792711  7.7918521546548876 13.5199999999999996   T   T   T
  3.3393652091378092  6.6787304182756184 13.5199999999999996   T   T   T
  5.5656086818963493  5.5656086818963484 13.5199999999999996   T   T   T
  7.7918521546548867  4.4524869455170801 13.5199999999999996   T   T   T
 10.0180956274134250  3.3393652091378092 13.5199999999999996   T   T   T
 12.2443391001719668  2.2262434727585392 13.5199999999999996   T   T   T
 14.4705825729305015  1.1131217363792698 13.5200000000000014   T   T   T
  0.0000000000000011  5.5656086818963484 13.5199999999999996   T   T   T
  2.2262434727585396  4.4524869455170784 13.5199999999999996   T   T   T
  4.4524869455170792  3.3393652091378092 13.5199999999999996   T   T   T
  6.6787304182756158  2.2262434727585396 13.5199999999999996   T   T   T
  8.9049738910341567  1.1131217363792689 13.5199999999999996   T   T   T
 11.1312173637926914 -0.0000000000000006 13.5199999999999996   T   T   T
  1.1131217363792698  2.2262434727585392 13.5199999999999996   T   T   T
  3.3393652091378079  1.1131217363792698 13.5199999999999996   T   T   T
  5.5656086818963457 -0.0000000000000003 13.5199999999999996   T   T   T
  0.0000000000000000  0.0000000000000000 13.5199999999999996   T   T   T
 13.9140217047408719 19.4796303866372149 15.2800000000000065   T   T   T
 16.1402651774994084 18.3665086502579520 15.2800000000000065   T   T   T
  8.3484130228445235 19.4796303866372220 15.2800000000000029   T   T   T
 10.5746564956030618 18.3665086502579520 15.2800000000000029   T   T   T
 12.8008999683616018 17.2533869138786748 15.2800000000000065   T   T   T
 15.0271434411201383 16.1402651774994119 15.2800000000000065   T   T   T
  2.7828043409481764 19.4796303866372220 15.2800000000000029   T   T   T
  5.0090478137067160 18.3665086502579520 15.2800000000000029   T   T   T
  7.2352912864652543 17.2533869138786820 15.2800000000000029   T   T   T
  9.4615347592237917 16.1402651774994119 15.2800000000000029   T   T   T
 11.6877782319823318 15.0271434411201401 15.2800000000000029   T   T   T
 13.9140217047408701 13.9140217047408736 15.2800000000000029   T   T   T
 16.1402651774994084 12.8008999683616036 15.2800000000000029   T   T   T
  1.6696826045689084 17.2533869138786820 15.2800000000000029   T   T   T
  3.8959260773274451 16.1402651774994119 15.2800000000000029   T   T   T
  6.1221695500859843 15.0271434411201437 15.2800000000000029   T   T   T
  8.3484130228445217 13.9140217047408736 15.2800000000000029   T   T   T
 10.5746564956030618 12.8008999683616036 15.2800000000000029   T   T   T
 12.8008999683615983 11.6877782319823336 15.2800000000000029   T   T   T
 15.0271434411201419 10.5746564956030618 15.2800000000000029   T   T   T
  0.5565608681896371 15.0271434411201437 15.2800000000000029   T   T   T
  2.7828043409481764 13.9140217047408719 15.2800000000000029   T   T   T
  5.0090478137067143 12.8008999683616089 15.2800000000000029   T   T   T
  7.2352912864652525 11.6877782319823353 15.2800000000000029   T   T   T
  9.4615347592237917 10.5746564956030653 15.2800000000000029   T   T   T
 11.6877782319823300  9.4615347592237953 15.2800000000000029   T   T   T
 13.9140217047408683  8.3484130228445235 15.2800000000000029   T   T   T
 16.1402651774994048  7.2352912864652534 15.2800000000000029   T   T   T
  1.6696826045689053 11.6877782319823300 15.2800000000000029   T   T   T
  3.8959260773274447 10.5746564956030653 15.2800000000000029   T   T   T
  6.1221695500859834  9.4615347592237917 15.2800000000000029   T   T   T
  8.3484130228445217  8.3484130228445235 15.2800000000000029   T   T   T
 10.5746564956030618  7.2352912864652534 15.2800000000000029   T   T   T
 12.8008999683615983  6.1221695500859825 15.2800000000000029   T   T   T
 15.0271434411201383  5.0090478137067125 15.2800000000000029   T   T   T
  0.5565608681896367  9.4615347592237917 15.2800000000000029   T   T   T
  2.7828043409481746  8.3484130228445235 15.2800000000000029   T   T   T
  5.0090478137067116  7.2352912864652534 15.2800000000000029   T   T   T
  7.2352912864652525  6.1221695500859843 15.2800000000000029   T   T   T
  9.4615347592237899  5.0090478137067143 15.2800000000000029   T   T   T
 11.6877782319823282  3.8959260773274424 15.2800000000000029   T   T   T
 13.9140217047408683  2.7828043409481742 15.2800000000000029   T   T   T
 16.1402651774994084  1.6696826045689039 15.2800000000000029   T   T   T
  1.6696826045689050  6.1221695500859852 15.2800000000000029   T   T   T
  3.8959260773274433  5.0090478137067160 15.2800000000000029   T   T   T
  6.1221695500859843  3.8959260773274442 15.2800000000000029   T   T   T
  8.3484130228445199  2.7828043409481751 15.2800000000000029   T   T   T
 10.5746564956030600  1.6696826045689050 15.2800000000000029   T   T   T
 12.8008999683615983  0.5565608681896346 15.2800000000000029   T   T   T
 15.0271434411201401 21.7058738593957550 15.2800000000000065   T   T   T
  0.5565608681896356  3.8959260773274438 15.2800000000000029   T   T   T
  2.7828043409481733  2.7828043409481742 15.2800000000000029   T   T   T
  5.0090478137067125  1.6696826045689048 15.2800000000000029   T   T   T
  7.2352912864652508  0.5565608681896349 15.2800000000000029   T   T   T
  9.4615347592237953 21.7058738593957550 15.2800000000000065   T   T   T
 11.6877782319823336 20.5927521230164885 15.2800000000000065   T   T   T
  1.6696826045689042  0.5565608681896350 15.2800000000000029   T   T   T
  3.8959260773274460 21.7058738593957585 15.2800000000000029   T   T   T
  6.1221695500859861 20.5927521230164885 15.2800000000000029   T   T   T
  0.5565608681896380 20.5927521230164885 15.2800000000000029   T   T   T
 13.3574608365512368 21.1493129912061200 10.0000000000000036   F   F   F
 15.5837043093097751 20.0361912548268535 10.0000000000000036   F   F   F
  7.7918521546548885 21.1493129912061271 10.0000000000000036   F   F   F
 10.0180956274134267 20.0361912548268535 10.0000000000000036   F   F   F
 12.2443391001719704 18.9230695184475834 10.0000000000000036   F   F   F
 14.4705825729305015 17.8099477820683134 10.0000000000000036   F   F   F
  2.2262434727585450 21.1493129912061235 10.0000000000000036   F   F   F
  4.4524869455170837 20.0361912548268535 10.0000000000000036   F   F   F
  6.6787304182756184 18.9230695184475834 10.0000000000000036   F   F   F
  8.9049738910341585 17.8099477820683134 10.0000000000000036   F   F   F
 11.1312173637926985 16.6968260456890434 10.0000000000000036   F   F   F
 13.3574608365512368 15.5837043093097751 10.0000000000000036   F   F   F
 15.5837043093097716 14.4705825729305069 10.0000000000000036   F   F   F
  1.1131217363792743 18.9230695184475834 10.0000000000000036   F   F   F
  3.3393652091378105 17.8099477820683170 10.0000000000000036   F   F   F
  5.5656086818963493 16.6968260456890505 10.0000000000000036   F   F   F
  7.7918521546548876 15.5837043093097769 10.0000000000000036   F   F   F
 10.0180956274134232 14.4705825729305069 10.0000000000000036   F   F   F
 12.2443391001719686 13.3574608365512386 10.0000000000000036   F   F   F
 14.4705825729305069 12.2443391001719650 10.0000000000000036   F   F   F
  0.0000000000000036 16.6968260456890469 10.0000000000000036   F   F   F
  2.2262434727585423 15.5837043093097751 10.0000000000000036   F   F   F
  4.4524869455170819 14.4705825729305086 10.0000000000000036   F   F   F
  6.6787304182756184 13.3574608365512368 10.0000000000000036   F   F   F
  8.9049738910341567 12.2443391001719704 10.0000000000000036   F   F   F
 11.1312173637926985 11.1312173637926968 10.0000000000000036   F   F   F
 13.3574608365512351 10.0180956274134303 10.0000000000000036   F   F   F
 15.5837043093097734  8.9049738910341603 10.0000000000000036   F   F   F
  1.1131217363792711 13.3574608365512333 10.0000000000000018   F   F   F
  3.3393652091378101 12.2443391001719704 10.0000000000000036   F   F   F
  5.5656086818963484 11.1312173637926950 10.0000000000000036   F   F   F
  7.7918521546548876 10.0180956274134267 10.0000000000000036   F   F   F
 10.0180956274134267  8.9049738910341567 10.0000000000000036   F   F   F
 12.2443391001719668  7.7918521546548858 10.0000000000000036   F   F   F
 14.4705825729305051  6.6787304182756184 10.0000000000000036   F   F   F
  0.0000000000000023 11.1312173637926968 10.0000000000000018   F   F   F
  2.2262434727585418 10.0180956274134267 10.0000000000000018   F   F   F
  4.4524869455170792  8.9049738910341567 10.0000000000000018   F   F   F
  6.6787304182756184  7.7918521546548876 10.0000000000000018   F   F   F
  8.9049738910341585  6.6787304182756184 10.0000000000000036   F   F   F
 11.1312173637926950  5.5656086818963475 10.0000000000000036   F   F   F
 13.3574608365512315  4.4524869455170792 10.0000000000000036   F   F   F
 15.5837043093097734  3.3393652091378092 10.0000000000000036   F   F   F
  1.1131217363792711  7.7918521546548876 10.0000000000000018   F   F   F
  3.3393652091378092  6.6787304182756184 10.0000000000000018   F   F   F
  5.5656086818963493  5.5656086818963484 10.0000000000000018   F   F   F
  7.7918521546548867  4.4524869455170801 10.0000000000000018   F   F   F
 10.0180956274134250  3.3393652091378092 10.0000000000000018   F   F   F
 12.2443391001719668  2.2262434727585392 10.0000000000000018   F   F   F
 14.4705825729305015  1.1131217363792698 10.0000000000000036   F   F   F
  0.0000000000000011  5.5656086818963484 10.0000000000000018   F   F   F
  2.2262434727585396  4.4524869455170784 10.0000000000000018   F   F   F
  4.4524869455170792  3.3393652091378092 10.0000000000000018   F   F   F
  6.6787304182756158  2.2262434727585396 10.0000000000000018   F   F   F
  8.9049738910341567  1.1131217363792689 10.0000000000000018   F   F   F
 11.1312173637926914 -0.0000000000000006 10.0000000000000018   F   F   F
  1.1131217363792698  2.2262434727585392 10.0000000000000018   F   F   F
  3.3393652091378079  1.1131217363792698 10.0000000000000018   F   F   F
  5.5656086818963457 -0.0000000000000003 10.0000000000000018   F   F   F
  0.0000000000000000  0.0000000000000000 10.0000000000000018   F   F   F
 13.9140217047408719 19.4796303866372149 11.7600000000000051   F   F   F
 16.1402651774994084 18.3665086502579520 11.7600000000000051   F   F   F
  8.3484130228445235 19.4796303866372220 11.7600000000000051   F   F   F
 10.5746564956030618 18.3665086502579520 11.7600000000000051   F   F   F
 12.8008999683616018 17.2533869138786748 11.7600000000000051   F   F   F
 15.0271434411201383 16.1402651774994119 11.7600000000000051   F   F   F
  2.7828043409481764 19.4796303866372220 11.7600000000000051   F   F   F
  5.0090478137067160 18.3665086502579520 11.7600000000000051   F   F   F
  7.2352912864652543 17.2533869138786820 11.7600000000000051   F   F   F
  9.4615347592237917 16.1402651774994119 11.7600000000000051   F   F   F
 11.6877782319823318 15.0271434411201401 11.7600000000000051   F   F   F
 13.9140217047408701 13.9140217047408736 11.7600000000000051   F   F   F
 16.1402651774994084 12.8008999683616036 11.7600000000000051   F   F   F
  1.6696826045689084 17.2533869138786820 11.7600000000000051   F   F   F
  3.8959260773274451 16.1402651774994119 11.7600000000000051   F   F   F
  6.1221695500859843 15.0271434411201437 11.7600000000000051   F   F   F
  8.3484130228445217 13.9140217047408736 11.7600000000000051   F   F   F
 10.5746564956030618 12.8008999683616036 11.7600000000000051   F   F   F
 12.8008999683615983 11.6877782319823336 11.7600000000000051   F   F   F
 15.0271434411201419 10.5746564956030618 11.7600000000000051   F   F   F
  0.5565608681896371 15.0271434411201437 11.7600000000000051   F   F   F
  2.7828043409481764 13.9140217047408719 11.7600000000000051   F   F   F
  5.0090478137067143 12.8008999683616089 11.7600000000000051   F   F   F
  7.2352912864652525 11.6877782319823353 11.7600000000000051   F   F   F
  9.4615347592237917 10.5746564956030653 11.7600000000000051   F   F   F
 11.6877782319823300  9.4615347592237953 11.7600000000000051   F   F   F
 13.9140217047408683  8.3484130228445235 11.7600000000000051   F   F   F
 16.1402651774994048  7.2352912864652534 11.7600000000000051   F   F   F
  1.6696826045689053 11.6877782319823300 11.7600000000000033   F   F   F
  3.8959260773274447 10.5746564956030653 11.7600000000000033   F   F   F
  6.1221695500859834  9.4615347592237917 11.7600000000000051   F   F   F
  8.3484130228445217  8.3484130228445235 11.7600000000000051   F   F   F
 10.5746564956030618  7.2352912864652534 11.7600000000000051   F   F   F
 12.8008999683615983  6.1221695500859825 11.7600000000000051   F   F   F
 15.0271434411201383  5.0090478137067125 11.7600000000000051   F   F   F
  0.5565608681896367  9.4615347592237917 11.7600000000000033   F   F   F
  2.7828043409481746  8.3484130228445235 11.7600000000000033   F   F   F
  5.0090478137067116  7.2352912864652534 11.7600000000000033   F   F   F
  7.2352912864652525  6.1221695500859843 11.7600000000000033   F   F   F
  9.4615347592237899  5.0090478137067143 11.7600000000000033   F   F   F
 11.6877782319823282  3.8959260773274424 11.7600000000000051   F   F   F
 13.9140217047408683  2.7828043409481742 11.7600000000000051   F   F   F
 16.1402651774994084  1.6696826045689039 11.7600000000000051   F   F   F
  1.6696826045689050  6.1221695500859852 11.7600000000000033   F   F   F
  3.8959260773274433  5.0090478137067160 11.7600000000000033   F   F   F
  6.1221695500859843  3.8959260773274442 11.7600000000000033   F   F   F
  8.3484130228445199  2.7828043409481751 11.7600000000000033   F   F   F
 10.5746564956030600  1.6696826045689050 11.7600000000000033   F   F   F
 12.8008999683615983  0.5565608681896346 11.7600000000000033   F   F   F
 15.0271434411201401 21.7058738593957550 11.7600000000000051   F   F   F
  0.5565608681896356  3.8959260773274438 11.7600000000000033   F   F   F
  2.7828043409481733  2.7828043409481742 11.7600000000000033   F   F   F
  5.0090478137067125  1.6696826045689048 11.7600000000000033   F   F   F
  7.2352912864652508  0.5565608681896349 11.7600000000000033   F   F   F
  9.4615347592237953 21.7058738593957550 11.7600000000000051   F   F   F
 11.6877782319823336 20.5927521230164885 11.7600000000000051   F   F   F
  1.6696826045689042  0.5565608681896350 11.7600000000000033   F   F   F
  3.8959260773274460 21.7058738593957585 11.7600000000000051   F   F   F
  6.1221695500859861 20.5927521230164885 11.7600000000000051   F   F   F
  0.5565608681896380 20.5927521230164885 11.7600000000000051   F   F   F
  1.8552028940582148 22.2624347274263741 19.2058007000000117   T   T   T
  1.8552028940582117  3.1803478180674669 19.2058007000000046   T   T   T
  4.6380072350063850  1.5901739089542257 19.2058007000000046   T   T   T
  7.4208115759545619 22.2624347274263741 19.2058007000000117   T   T   T
  1.8552028940582124  6.3606956362939524 19.2058007000000046   T   T   T
  4.6380072350063859  4.7705217271807108 19.2058007000000046   T   T   T
  7.4208115759545592  3.1803478180674678 19.2058007000000046   T   T   T
 10.2036159169027361  1.5901739089542257 19.2058007000000046   T   T   T
 12.9864202578509129 22.2624347274263741 19.2058007000000117   T   T   T
  1.8552028940582128  9.5410434545204357 19.2058007000000046   T   T   T
  4.6380072350063859  7.9508695454071949 19.2058007000000046   T   T   T
  7.4208115759545592  6.3606956362939524 19.2058007000000046   T   T   T
 10.2036159169027361  4.7705217271807108 19.2058007000000046   T   T   T
 12.9864202578509094  3.1803478180674678 19.2058007000000117   T   T   T
 15.7692245987990827  1.5901739089542253 19.2058007000000117   T   T   T
  1.8552028940582133 12.7213912727469189 19.2058007000000046   T   T   T
  4.6380072350063868 11.1312173636336809 19.2058007000000046   T   T   T
  7.4208115759545601  9.5410434545204357 19.2058007000000046   T   T   T
 10.2036159169027378  7.9508695454071923 19.2058007000000117   T   T   T
 12.9864202578509111  6.3606956362939515 19.2058007000000117   T   T   T
 15.7692245987990827  4.7705217271807108 19.2058007000000046   T   T   T
  1.8552028940582139 15.9017390909734022 19.2058007000000046   T   T   T
  4.6380072350063877 14.3115651818601606 19.2058007000000046   T   T   T
  7.4208115759545601 12.7213912727469172 19.2058007000000117   T   T   T
 10.2036159169027378 11.1312173636336755 19.2058007000000117   T   T   T
 12.9864202578509111  9.5410434545204339 19.2058007000000046   T   T   T
 15.7692245987990844  7.9508695454071940 19.2058007000000046   T   T   T
  1.8552028940582144 19.0820869091998908 19.2058007000000046   T   T   T
  4.6380072350063877 17.4919130000866474 19.2058007000000117   T   T   T
  7.4208115759545610 15.9017390909734022 19.2058007000000117   T   T   T
 10.2036159169027378 14.3115651818601606 19.2058007000000046   T   T   T
 12.9864202578509111 12.7213912727469189 19.2058007000000046   T   T   T
 15.7692245987990844 11.1312173636336809 19.2058007000000046   T   T   T
  4.6380072350063886 20.6722608183131271 19.2058007000000117   T   T   T
  7.4208115759545610 19.0820869091998908 19.2058007000000046   T   T   T
 10.2036159169027396 17.4919130000866474 19.2058007000000046   T   T   T
 12.9864202578509111 15.9017390909734040 19.2058007000000046   T   T   T
 15.7692245987990844 14.3115651818601641 19.2058007000000117   T   T   T
 10.2036159169027396 20.6722608183131307 19.2058007000000117   T   T   T
 12.9864202578509129 19.0820869091998837 19.2058007000000117   T   T   T
 15.7692245987990862 17.4919130000866474 19.2058007000000117   T   T   T
 15.7692245987990862 20.6722608183131307 19.2058007000000117   T   T   T
  0.9276014468899657  1.5901739092722604 25.8949507000000025   T   T   T
  0.9276014468899663  4.7705217274987435 25.8949507000000025   T   T   T
  3.7104057878381393  3.1803478183855023 25.8949507000000025   T   T   T
  6.4932101287863144  1.5901739092722604 25.8949507000000025   T   T   T
  0.9276014468899668  7.9508695457252294 25.8949507000000025   T   T   T
  3.7104057878381398  6.3606956366119869 25.8949507000000025   T   T   T
  6.4932101287863153  4.7705217274987435 25.8949507000000025   T   T   T
  9.2760144697344877  3.1803478183855023 25.8949507000000025   T   T   T
 12.0588188106826610  1.5901739092722607 25.8949507000000025   T   T   T
  0.9276014468899673 11.1312173639517145 25.8949507000000025   T   T   T
  3.7104057878381402  9.5410434548384675 25.8949507000000025   T   T   T
  6.4932101287863153  7.9508695457252276 25.8949507000000025   T   T   T
  9.2760144697344895  6.3606956366119851 25.8949507000000025   T   T   T
 12.0588188106826610  4.7705217274987435 25.8949507000000025   T   T   T
 14.8416231516308343  3.1803478183855023 25.8949507000000025   T   T   T
  0.9276014468899678 14.3115651821781977 25.8949507000000025   T   T   T
  3.7104057878381411 12.7213912730649543 25.8949507000000025   T   T   T
  6.4932101287863162 11.1312173639517127 25.8949507000000025   T   T   T
  9.2760144697344895  9.5410434548384675 25.8949507000000025   T   T   T
 12.0588188106826628  7.9508695457252276 25.8949507000000025   T   T   T
 14.8416231516308361  6.3606956366119878 25.8949507000000025   T   T   T
  0.9276014468899683 17.4919130004046792 25.8949507000000025   T   T   T
  3.7104057878381416 15.9017390912914340 25.8949507000000025   T   T   T
  6.4932101287863171 14.3115651821781977 25.8949507000000025   T   T   T
  9.2760144697344895 12.7213912730649543 25.8949507000000025   T   T   T
 12.0588188106826628 11.1312173639517091 25.8949507000000025   T   T   T
 14.8416231516308361  9.5410434548384710 25.8949507000000025   T   T   T
  0.9276014468899688 20.6722608186311660 25.8949507000000025   T   T   T
  3.7104057878381420 19.0820869095179155 25.8949507000000025   T   T   T
  6.4932101287863171 17.4919130004046792 25.8949507000000025   T   T   T
  9.2760144697344895 15.9017390912914411 25.8949507000000025   T   T   T
 12.0588188106826628 14.3115651821781942 25.8949507000000025   T   T   T
 14.8416231516308361 12.7213912730649561 25.8949507000000025   T   T   T
  3.7104057878381389  0.0000000001590152 25.8949507000000025   T   T   T
  6.4932101287863180 20.6722608186311660 25.8949507000000025   T   T   T
  9.2760144697344913 19.0820869095179191 25.8949507000000025   T   T   T
 12.0588188106826646 17.4919130004046792 25.8949507000000025   T   T   T
 14.8416231516308361 15.9017390912914411 25.8949507000000025   T   T   T
  9.2760144697344877  0.0000000001590102 25.8949507000000025   T   T   T
 12.0588188106826646 20.6722608186311625 25.8949507000000025   T   T   T
 14.8416231516308379 19.0820869095179226 25.8949507000000025   T   T   T
 14.8416231516308343  0.0000000001590152 25.8949506999999954   T   T   T
  1.8552028940582139 22.2624347274263741 24.1691500000000019   T   T   T
  1.8552028940582108  3.1803478180674665 24.1691500000000019   T   T   T
  4.6380072350063841  1.5901739089542253 24.1691500000000019   T   T   T
  7.4208115759545610 22.2624347274263741 24.1691500000000090   T   T   T
  1.8552028940582115  6.3606956362939524 24.1691500000000019   T   T   T
  4.6380072350063850  4.7705217271807099 24.1691500000000090   T   T   T
  7.4208115759545583  3.1803478180674669 24.1691500000000019   T   T   T
 10.2036159169027361  1.5901739089542253 24.1691500000000019   T   T   T
 12.9864202578509129 22.2624347274263741 24.1691500000000090   T   T   T
  1.8552028940582119  9.5410434545204357 24.1691500000000090   T   T   T
  4.6380072350063850  7.9508695454071949 24.1691500000000019   T   T   T
  7.4208115759545583  6.3606956362939524 24.1691500000000019   T   T   T
 10.2036159169027361  4.7705217271807099 24.1691500000000019   T   T   T
 12.9864202578509094  3.1803478180674669 24.1691500000000019   T   T   T
 15.7692245987990827  1.5901739089542251 24.1691500000000019   T   T   T
  1.8552028940582124 12.7213912727469189 24.1691500000000019   T   T   T
  4.6380072350063859 11.1312173636336809 24.1691500000000019   T   T   T
  7.4208115759545592  9.5410434545204357 24.1691500000000019   T   T   T
 10.2036159169027378  7.9508695454071923 24.1691500000000019   T   T   T
 12.9864202578509111  6.3606956362939515 24.1691500000000019   T   T   T
 15.7692245987990827  4.7705217271807099 24.1691500000000019   T   T   T
  1.8552028940582130 15.9017390909734022 24.1691500000000019   T   T   T
  4.6380072350063868 14.3115651818601606 24.1691500000000019   T   T   T
  7.4208115759545592 12.7213912727469172 24.1691500000000019   T   T   T
 10.2036159169027378 11.1312173636336755 24.1691500000000019   T   T   T
 12.9864202578509111  9.5410434545204339 24.1691500000000019   T   T   T
 15.7692245987990844  7.9508695454071940 24.1691500000000019   T   T   T
  1.8552028940582135 19.0820869091998908 24.1691500000000019   T   T   T
  4.6380072350063868 17.4919130000866474 24.1691500000000019   T   T   T
  7.4208115759545601 15.9017390909734022 24.1691500000000019   T   T   T
 10.2036159169027378 14.3115651818601606 24.1691500000000019   T   T   T
 12.9864202578509111 12.7213912727469189 24.1691500000000019   T   T   T
 15.7692245987990844 11.1312173636336809 24.1691500000000090   T   T   T
  4.6380072350063877 20.6722608183131271 24.1691500000000019   T   T   T
  7.4208115759545601 19.0820869091998908 24.1691500000000019   T   T   T
 10.2036159169027396 17.4919130000866474 24.1691500000000019   T   T   T
 12.9864202578509111 15.9017390909734040 24.1691500000000090   T   T   T
 15.7692245987990844 14.3115651818601641 24.1691500000000090   T   T   T
 10.2036159169027396 20.6722608183131307 24.1691500000000090   T   T   T
 12.9864202578509129 19.0820869091998837 24.1691500000000090   T   T   T
 15.7692245987990862 17.4919130000866474 24.1691500000000090   T   T   T
 15.7692245987990862 20.6722608183131307 24.1691500000000019   T   T   T
  0.9276014468899666  1.5901739092722609 17.4800000000000040   T   T   T
  0.9276014468899672  4.7705217274987435 17.4800000000000040   T   T   T
  3.7104057878381407  3.1803478183855032 17.4800000000000040   T   T   T
  6.4932101287863153  1.5901739092722609 17.4800000000000040   T   T   T
  0.9276014468899677  7.9508695457252303 17.4800000000000040   T   T   T
  3.7104057878381411  6.3606956366119878 17.4800000000000040   T   T   T
  6.4932101287863162  4.7705217274987444 17.4800000000000040   T   T   T
  9.2760144697344877  3.1803478183855032 17.4800000000000040   T   T   T
 12.0588188106826610  1.5901739092722613 17.4800000000000040   T   T   T
  0.9276014468899682 11.1312173639517145 17.4800000000000040   T   T   T
  3.7104057878381416  9.5410434548384693 17.4800000000000040   T   T   T
  6.4932101287863162  7.9508695457252294 17.4800000000000040   T   T   T
  9.2760144697344895  6.3606956366119869 17.4800000000000040   T   T   T
 12.0588188106826610  4.7705217274987444 17.4800000000000111   T   T   T
 14.8416231516308343  3.1803478183855032 17.4800000000000111   T   T   T
  0.9276014468899687 14.3115651821781977 17.4800000000000040   T   T   T
  3.7104057878381425 12.7213912730649543 17.4800000000000040   T   T   T
  6.4932101287863171 11.1312173639517127 17.4800000000000040   T   T   T
  9.2760144697344895  9.5410434548384693 17.4800000000000111   T   T   T
 12.0588188106826628  7.9508695457252294 17.4800000000000111   T   T   T
 14.8416231516308361  6.3606956366119887 17.4800000000000111   T   T   T
  0.9276014468899692 17.4919130004046792 17.4800000000000040   T   T   T
  3.7104057878381429 15.9017390912914340 17.4800000000000040   T   T   T
  6.4932101287863180 14.3115651821781977 17.4800000000000111   T   T   T
  9.2760144697344895 12.7213912730649543 17.4800000000000111   T   T   T
 12.0588188106826628 11.1312173639517091 17.4800000000000111   T   T   T
 14.8416231516308361  9.5410434548384728 17.4800000000000040   T   T   T
  0.9276014468899697 20.6722608186311660 17.4800000000000040   T   T   T
  3.7104057878381433 19.0820869095179155 17.4800000000000111   T   T   T
  6.4932101287863180 17.4919130004046792 17.4800000000000111   T   T   T
  9.2760144697344895 15.9017390912914411 17.4800000000000111   T   T   T
 12.0588188106826628 14.3115651821781942 17.4800000000000040   T   T   T
 14.8416231516308361 12.7213912730649561 17.4800000000000040   T   T   T
  3.7104057878381402  0.0000000001590157 17.4800000000000111   T   T   T
  6.4932101287863189 20.6722608186311660 17.4800000000000111   T   T   T
  9.2760144697344913 19.0820869095179191 17.4800000000000040   T   T   T
 12.0588188106826646 17.4919130004046792 17.4800000000000040   T   T   T
 14.8416231516308361 15.9017390912914411 17.4800000000000040   T   T   T
  9.2760144697344877  0.0000000001590108 17.4800000000000040   T   T   T
 12.0588188106826646 20.6722608186311625 17.4800000000000040   T   T   T
 14.8416231516308379 19.0820869095179226 17.4800000000000040   T   T   T
 14.8416231516308343  0.0000000001590157 17.4800000000000040   T   T   T
  0.9276014468899664  1.5901739092722604 20.9316013999999981   T   T   T
  0.9276014468899669  4.7705217274987435 20.9316013999999981   T   T   T
  3.7104057878381407  3.1803478183855023 20.9316013999999981   T   T   T
  6.4932101287863153  1.5901739092722607 20.9316013999999981   T   T   T
  0.9276014468899675  7.9508695457252294 20.9316013999999981   T   T   T
  3.7104057878381411  6.3606956366119878 20.9316013999999981   T   T   T
  6.4932101287863162  4.7705217274987435 20.9316013999999981   T   T   T
  9.2760144697344877  3.1803478183855023 20.9316013999999981   T   T   T
 12.0588188106826610  1.5901739092722609 20.9316013999999981   T   T   T
  0.9276014468899679 11.1312173639517145 20.9316013999999981   T   T   T
  3.7104057878381416  9.5410434548384693 20.9316013999999981   T   T   T
  6.4932101287863162  7.9508695457252276 20.9316013999999981   T   T   T
  9.2760144697344895  6.3606956366119869 20.9316013999999981   T   T   T
 12.0588188106826610  4.7705217274987435 20.9316014000000123   T   T   T
 14.8416231516308343  3.1803478183855023 20.9316014000000123   T   T   T
  0.9276014468899685 14.3115651821781977 20.9316013999999981   T   T   T
  3.7104057878381425 12.7213912730649543 20.9316013999999981   T   T   T
  6.4932101287863171 11.1312173639517127 20.9316013999999981   T   T   T
  9.2760144697344895  9.5410434548384693 20.9316014000000123   T   T   T
 12.0588188106826628  7.9508695457252294 20.9316014000000123   T   T   T
 14.8416231516308361  6.3606956366119887 20.9316014000000123   T   T   T
  0.9276014468899689 17.4919130004046792 20.9316013999999981   T   T   T
  3.7104057878381429 15.9017390912914340 20.9316013999999981   T   T   T
  6.4932101287863180 14.3115651821781977 20.9316014000000123   T   T   T
  9.2760144697344895 12.7213912730649543 20.9316014000000123   T   T   T
 12.0588188106826628 11.1312173639517091 20.9316014000000123   T   T   T
 14.8416231516308361  9.5410434548384728 20.9316014000000123   T   T   T
  0.9276014468899695 20.6722608186311660 20.9316013999999981   T   T   T
  3.7104057878381433 19.0820869095179155 20.9316014000000123   T   T   T
  6.4932101287863180 17.4919130004046792 20.9316014000000123   T   T   T
  9.2760144697344895 15.9017390912914411 20.9316014000000123   T   T   T
 12.0588188106826628 14.3115651821781942 20.9316014000000123   T   T   T
 14.8416231516308361 12.7213912730649561 20.9316014000000123   T   T   T
  3.7104057878381402  0.0000000001590155 20.9316014000000123   T   T   T
  6.4932101287863189 20.6722608186311660 20.9316014000000123   T   T   T
  9.2760144697344913 19.0820869095179191 20.9316014000000123   T   T   T
 12.0588188106826646 17.4919130004046792 20.9316014000000123   T   T   T
 14.8416231516308361 15.9017390912914411 20.9316014000000123   T   T   T
  9.2760144697344877  0.0000000001590106 20.9316014000000052   T   T   T
 12.0588188106826646 20.6722608186311625 20.9316014000000123   T   T   T
 14.8416231516308379 19.0820869095179226 20.9316014000000052   T   T   T
 14.8416231516308343  0.0000000001590155 20.9316014000000052   T   T   T
  1.8552028940582139 22.2624347274263741 27.6207513999999961   T   T   T
  1.8552028940582108  3.1803478180674665 27.6207513999999961   T   T   T
  4.6380072350063841  1.5901739089542253 27.6207513999999961   T   T   T
  7.4208115759545619 22.2624347274263741 27.6207514000000032   T   T   T
  1.8552028940582115  6.3606956362939515 27.6207513999999961   T   T   T
  4.6380072350063850  4.7705217271807099 27.6207514000000032   T   T   T
  7.4208115759545592  3.1803478180674669 27.6207514000000032   T   T   T
 10.2036159169027343  1.5901739089542253 27.6207513999999961   T   T   T
 12.9864202578509111 22.2624347274263741 27.6207514000000032   T   T   T
  1.8552028940582119  9.5410434545204339 27.6207514000000032   T   T   T
  4.6380072350063850  7.9508695454071940 27.6207514000000032   T   T   T
  7.4208115759545592  6.3606956362939515 27.6207513999999961   T   T   T
 10.2036159169027343  4.7705217271807099 27.6207513999999961   T   T   T
 12.9864202578509076  3.1803478180674669 27.6207513999999961   T   T   T
 15.7692245987990809  1.5901739089542251 27.6207513999999961   T   T   T
  1.8552028940582124 12.7213912727469189 27.6207514000000032   T   T   T
  4.6380072350063859 11.1312173636336791 27.6207513999999961   T   T   T
  7.4208115759545601  9.5410434545204339 27.6207513999999961   T   T   T
 10.2036159169027361  7.9508695454071914 27.6207513999999961   T   T   T
 12.9864202578509094  6.3606956362939497 27.6207513999999961   T   T   T
 15.7692245987990809  4.7705217271807099 27.6207513999999961   T   T   T
  1.8552028940582130 15.9017390909734022 27.6207513999999961   T   T   T
  4.6380072350063868 14.3115651818601606 27.6207513999999961   T   T   T
  7.4208115759545601 12.7213912727469172 27.6207513999999961   T   T   T
 10.2036159169027361 11.1312173636336738 27.6207513999999961   T   T   T
 12.9864202578509094  9.5410434545204321 27.6207513999999961   T   T   T
 15.7692245987990827  7.9508695454071923 27.6207513999999961   T   T   T
  1.8552028940582135 19.0820869091998908 27.6207513999999961   T   T   T
  4.6380072350063868 17.4919130000866474 27.6207513999999961   T   T   T
  7.4208115759545610 15.9017390909734022 27.6207513999999961   T   T   T
 10.2036159169027361 14.3115651818601606 27.6207513999999961   T   T   T
 12.9864202578509094 12.7213912727469189 27.6207513999999961   T   T   T
 15.7692245987990827 11.1312173636336791 27.6207514000000032   T   T   T
  4.6380072350063877 20.6722608183131271 27.6207513999999961   T   T   T
  7.4208115759545610 19.0820869091998908 27.6207513999999961   T   T   T
 10.2036159169027378 17.4919130000866474 27.6207513999999961   T   T   T
 12.9864202578509094 15.9017390909734040 27.6207514000000032   T   T   T
 15.7692245987990827 14.3115651818601641 27.6207514000000032   T   T   T
 10.2036159169027378 20.6722608183131307 27.6207514000000032   T   T   T
 12.9864202578509111 19.0820869091998837 27.6207514000000032   T   T   T
 15.7692245987990844 17.4919130000866474 27.6207514000000032   T   T   T
 15.7692245987990844 20.6722608183131307 27.6207514000000032   T   T   T
