P  Mo P  Mo P  Mo P  Mo P  Mo P  Mo P  Mo P  Mo P  Mo P  Mo P  Mo P  Mo P  Mo P  Mo P  Mo P  Mo P  Mo P  Mo P  Mo P  Mo P  Mo P  Mo P  Mo P  Mo P  Mo P  Mo P  Mo P  Mo P  Mo P  Mo P  Mo P  Mo P  Mo P  Mo P  Mo P  Mo P  Mo P  Mo P  Mo P  Mo P  Mo P  Mo P  Mo P  Mo P  Mo P  Mo P  Mo P  Mo P  Mo P  Mo P  Mo P  Mo
 1.0000000000000000
    76.3794882017288899    0.0000000000000000    0.0000000000000047
    -4.8521999999999972    8.4042569284857080    0.0000000000000006
     0.0000000000000000    0.0000000000000000   24.7734500000000040
 P   Mo  P   Mo  P   Mo  P   Mo  P   Mo  P   Mo  P   Mo  P   Mo  P   Mo  P   Mo  P   Mo  P   Mo  P   Mo  P   Mo  P   Mo  P   Mo  P   Mo  P   Mo  P   Mo  P   Mo  P   Mo  P   Mo  P   Mo  P   Mo  P   Mo  P   Mo  P   Mo  P   Mo  P   Mo  P   Mo  P   Mo  P   Mo  P   Mo  P   Mo  P   Mo  P   Mo  P   Mo  P   Mo  P   Mo  P   Mo  P   Mo  P   Mo  P   Mo  P   Mo  P   Mo  P   Mo  P   Mo  P   Mo  P   Mo  P   Mo  P   Mo  P   Mo 
   1   1   1   1   5   1   1   1   1   1   1   1   1   1   1   1   1   1   1   1   1   1   1   1   1   1   1   1   1   1   1   1   1   1   1   1   1   1   1   1   1   1   1   1   1   1   1   1   1   1   1   1   1   1   1   1   1   1   1   1   1   1   1   1   1   1   1   1   1   1   1   1   1   1   1   1   1   1   1   1   1   1   1   1   1   1   1   1   1   1   1   1   1   1   1   1   1   1   1   1   5   1   1   1
Selective dynamics
Cartesian
 23.0940107675850257  0.0000000000000000 10.0000000000000000   F   F   F
 23.0940107674232848  1.8676126508679822 11.5911500000000025   F   F   F
 23.0940107675850257  0.0000000000000000 13.1823000000000015   T   T   T
 23.0940107674232848  1.8676126508679822 14.7734500000000040   T   T   T
 21.4766107675850257  2.8014189761619024 10.0000000000000000   F   F   F
 21.4766107675850257  2.8014189761619024 13.1823000000000015   T   T   T
 19.8592107675850258  5.6028379523238048 10.0000000000000036   F   F   F
 19.8592107675850258  5.6028379523238048 13.1823000000000015   T   T   T
 26.3288107675850256  0.0000000000000000 10.0000000000000000   F   F   F
 26.3288107674232847  1.8676126508679822 11.5911500000000025   F   F   F
 26.3288107675850256  0.0000000000000000 13.1823000000000015   T   T   T
 26.3288107674232847  1.8676126508679822 14.7734500000000040   T   T   T
 24.7114107675850256  2.8014189761619024 10.0000000000000036   F   F   F
 24.7114107674232883  4.6690316270298844 11.5911500000000025   F   F   F
 24.7114107675850256  2.8014189761619024 13.1823000000000015   T   T   T
 24.7114107674232883  4.6690316270298844 14.7734500000000040   T   T   T
 23.0940107675850257  5.6028379523238048 10.0000000000000036   F   F   F
 23.0940107674232884  7.4704506031917868 11.5911500000000025   F   F   F
 23.0940107675850257  5.6028379523238048 13.1823000000000015   T   T   T
 23.0940107674232884  7.4704506031917868 14.7734500000000040   T   T   T
 29.5636107675850255  0.0000000000000000 10.0000000000000036   F   F   F
 29.5636107674232846  1.8676126508679822 11.5911500000000025   F   F   F
 29.5636107675850255  0.0000000000000000 13.1823000000000015   T   T   T
 29.5636107674232846  1.8676126508679822 14.7734500000000040   T   T   T
 27.9462107675850255  2.8014189761619024 10.0000000000000036   F   F   F
 27.9462107674232882  4.6690316270298844 11.5911500000000025   F   F   F
 27.9462107675850255  2.8014189761619024 13.1823000000000015   T   T   T
 27.9462107674232882  4.6690316270298844 14.7734500000000040   T   T   T
 26.3288107675850256  5.6028379523238048 10.0000000000000036   F   F   F
 26.3288107674232883  7.4704506031917868 11.5911500000000025   F   F   F
 26.3288107675850256  5.6028379523238048 13.1823000000000015   T   T   T
 26.3288107674232883  7.4704506031917868 14.7734500000000040   T   T   T
 32.7984107675850254  0.0000000000000000 10.0000000000000036   F   F   F
 32.7984107674232845  1.8676126508679822 11.5911500000000025   F   F   F
 32.7984107675850254  0.0000000000000000 13.1823000000000015   T   T   T
 32.7984107674232845  1.8676126508679822 14.7734500000000040   T   T   T
 31.1810107675850254  2.8014189761619024 10.0000000000000036   F   F   F
 31.1810107674232881  4.6690316270298844 11.5911500000000025   F   F   F
 31.1810107675850254  2.8014189761619024 13.1823000000000015   T   T   T
 31.1810107674232881  4.6690316270298844 14.7734500000000040   T   T   T
 29.5636107675850255  5.6028379523238048 10.0000000000000036   F   F   F
 29.5636107674232882  7.4704506031917868 11.5911500000000025   F   F   F
 29.5636107675850255  5.6028379523238048 13.1823000000000015   T   T   T
 29.5636107674232882  7.4704506031917868 14.7734500000000040   T   T   T
 36.0332107675850253  0.0000000000000000 10.0000000000000036   F   F   F
 36.0332107674232844  1.8676126508679822 11.5911500000000025   F   F   F
 36.0332107675850253  0.0000000000000000 13.1823000000000015   T   T   T
 36.0332107674232844  1.8676126508679822 14.7734500000000040   T   T   T
 34.4158107675850289  2.8014189761619024 10.0000000000000036   F   F   F
 34.4158107674232880  4.6690316270298844 11.5911500000000025   F   F   F
 34.4158107675850289  2.8014189761619024 13.1823000000000015   T   T   T
 34.4158107674232880  4.6690316270298844 14.7734500000000040   T   T   T
 32.7984107675850254  5.6028379523238048 10.0000000000000036   F   F   F
 32.7984107674232916  7.4704506031917868 11.5911500000000025   F   F   F
 32.7984107675850254  5.6028379523238048 13.1823000000000015   T   T   T
 32.7984107674232916  7.4704506031917868 14.7734500000000040   T   T   T
 39.2680107675850252  0.0000000000000000 10.0000000000000036   F   F   F
 39.2680107674232843  1.8676126508679822 11.5911500000000025   F   F   F
 39.2680107675850252  0.0000000000000000 13.1823000000000015   T   T   T
 39.2680107674232843  1.8676126508679822 14.7734500000000040   T   T   T
 37.6506107675850217  2.8014189761619024 10.0000000000000036   F   F   F
 37.6506107674232879  4.6690316270298844 11.5911500000000025   F   F   F
 37.6506107675850217  2.8014189761619024 13.1823000000000015   T   T   T
 37.6506107674232879  4.6690316270298844 14.7734500000000040   T   T   T
 36.0332107675850253  5.6028379523238048 10.0000000000000036   F   F   F
 36.0332107674232844  7.4704506031917868 11.5911500000000025   F   F   F
 36.0332107675850253  5.6028379523238048 13.1823000000000015   T   T   T
 36.0332107674232844  7.4704506031917868 14.7734500000000040   T   T   T
 42.5028107675850251  0.0000000000000000 10.0000000000000036   F   F   F
 42.5028107674232842  1.8676126508679822 11.5911500000000025   F   F   F
 42.5028107675850251  0.0000000000000000 13.1823000000000015   T   T   T
 42.5028107674232842  1.8676126508679822 14.7734500000000040   T   T   T
 40.8854107675850287  2.8014189761619024 10.0000000000000036   F   F   F
 40.8854107674232807  4.6690316270298844 11.5911500000000025   F   F   F
 40.8854107675850287  2.8014189761619024 13.1823000000000015   T   T   T
 40.8854107674232807  4.6690316270298844 14.7734500000000040   T   T   T
 39.2680107675850252  5.6028379523238048 10.0000000000000036   F   F   F
 39.2680107674232843  7.4704506031917868 11.5911500000000025   F   F   F
 39.2680107675850252  5.6028379523238048 13.1823000000000050   T   T   T
 39.2680107674232843  7.4704506031917868 14.7734500000000040   T   T   T
 45.7376107675850250  0.0000000000000000 10.0000000000000036   F   F   F
 45.7376107674232841  1.8676126508679822 11.5911500000000025   F   F   F
 45.7376107675850250  0.0000000000000000 13.1823000000000015   T   T   T
 45.7376107674232841  1.8676126508679822 14.7734500000000040   T   T   T
 44.1202107675850215  2.8014189761619024 10.0000000000000036   F   F   F
 44.1202107674232877  4.6690316270298844 11.5911500000000025   F   F   F
 44.1202107675850215  2.8014189761619024 13.1823000000000050   T   T   T
 44.1202107674232877  4.6690316270298844 14.7734500000000040   T   T   T
 42.5028107675850251  5.6028379523238048 10.0000000000000036   F   F   F
 42.5028107674232842  7.4704506031917868 11.5911500000000025   F   F   F
 42.5028107675850251  5.6028379523238048 13.1823000000000050   T   T   T
 42.5028107674232842  7.4704506031917868 14.7734500000000040   T   T   T
 48.9724107675850249  0.0000000000000000 10.0000000000000036   F   F   F
 48.9724107674232840  1.8676126508679822 11.5911500000000025   F   F   F
 48.9724107675850249  0.0000000000000000 13.1823000000000050   T   T   T
 48.9724107674232840  1.8676126508679822 14.7734500000000040   T   T   T
 47.3550107675850285  2.8014189761619024 10.0000000000000036   F   F   F
 47.3550107674232805  4.6690316270298844 11.5911500000000025   F   F   F
 47.3550107675850285  2.8014189761619024 13.1823000000000050   T   T   T
 47.3550107674232805  4.6690316270298844 14.7734500000000040   T   T   T
 45.7376107675850250  5.6028379523238048 10.0000000000000036   F   F   F
 45.7376107674232841  7.4704506031917868 11.5911500000000025   F   F   F
 45.7376107675850250  5.6028379523238048 13.1823000000000050   T   T   T
 45.7376107674232841  7.4704506031917868 14.7734500000000040   T   T   T
 52.2072107675850248  0.0000000000000000 10.0000000000000036   F   F   F
 52.2072107675850248  0.0000000000000000 13.1823000000000050   T   T   T
 50.5898107675850213  2.8014189761619024 10.0000000000000036   F   F   F
 50.5898107675850213  2.8014189761619024 13.1823000000000050   T   T   T
 48.9724107675850249  5.6028379523238048 10.0000000000000036   F   F   F
 48.9724107674232840  7.4704506031917868 11.5911500000000025   F   F   F
 48.9724107675850249  5.6028379523238048 13.1823000000000050   T   T   T
 48.9724107674232840  7.4704506031917868 14.7734500000000040   T   T   T
