Ni Mo N  Ru
 1.0000000000000000
     8.9742743439233017    0.0000000000000000    0.0000000000000005
     2.7613151827456401   22.0905214619650501    0.0000000000000014
     0.0000000000000000    0.0000000000000000   35.5799999999999983
 Ni  Mo  N   Ru 
 128  96  48   2
Selective dynamics
Cartesian
  6.9032879568640801  1.3806575913728159 13.5199999999999996   T   T   T
  8.2839455482368987  3.4516439784320392 13.5199999999999996   T   T   T
  3.4516439784320401  0.6903287956864079 13.5199999999999996   T   T   T
  4.8323015698048559  2.7613151827456313 13.5199999999999996   T   T   T
  6.2129591611776718  4.8323015698048550 13.5199999999999996   T   T   T
  7.5936167525504894  6.9032879568640784 13.5199999999999996   T   T   T
  8.9742743439233053  8.9742743439233017 13.5199999999999996   T   T   T
  0.0000000000000000  0.0000000000000000 13.5199999999999996   T   T   T
  1.3806575913728167  2.0709863870592233 13.5199999999999996   T   T   T
  2.7613151827456335  4.1419727741184467 13.5199999999999996   T   T   T
  4.1419727741184493  6.2129591611776700 13.5199999999999996   T   T   T
  5.5226303654912670  8.2839455482368933 13.5199999999999996   T   T   T
  6.9032879568640837 10.3549319352961167 13.5199999999999996   T   T   T
  8.2839455482368987 12.4259183223553400 13.5199999999999996   T   T   T
  9.6646031396097154 14.4969047094145633 13.5199999999999996   T   T   T
  0.6903287956864100  5.5226303654912625 13.5199999999999996   T   T   T
  2.0709863870592269  7.5936167525504876 13.5199999999999996   T   T   T
  3.4516439784320427  9.6646031396097101 13.5199999999999996   T   T   T
  4.8323015698048604 11.7355895266689334 13.5199999999999996   T   T   T
  6.2129591611776798 13.8065759137281567 13.5199999999999996   T   T   T
  7.5936167525504921 15.8775623007873818 13.5199999999999996   T   T   T
  8.9742743439233088 17.9485486878466034 13.5199999999999996   T   T   T
 10.3549319352961273 20.0195350749058250 13.5199999999999996   T   T   T
  1.3806575913728201 11.0452607309825250 13.5199999999999996   T   T   T
  2.7613151827456370 13.1162471180417484 13.5199999999999996   T   T   T
  4.1419727741184538 15.1872335051009753 13.5199999999999996   T   T   T
  5.5226303654912741 17.2582198921601950 13.5199999999999996   T   T   T
  6.9032879568640855 19.3292062792194201 13.5199999999999996   T   T   T
  8.2839455482369058 21.4001926662786417 13.5199999999999996   T   T   T
  2.0709863870592318 16.5678910964737867 13.5199999999999996   T   T   T
  3.4516439784320476 18.6388774835330118 13.5199999999999996   T   T   T
  4.8323015698048648 20.7098638705922333 13.5199999999999996   T   T   T
  6.5581235590208777  3.1064795805888350 15.2800000000000011   T   T   T
  7.9387811503936927  5.1774659676480583 15.2800000000000011   T   T   T
  3.1064795805888372  2.4161507849024275 15.2800000000000011   T   T   T
  4.4871371719616526  4.4871371719616508 15.2800000000000011   T   T   T
  5.8677947633344694  6.5581235590208742 15.2800000000000011   T   T   T
  7.2484523547072879  8.6291099460800957 15.2800000000000011   T   T   T
  8.6291099460801028 10.7000963331393208 15.2800000000000011   T   T   T
  8.6291099460800993  1.7258219892160198 15.2800000000000011   T   T   T
  1.0354931935296134  3.7968083762752438 15.2800000000000011   T   T   T
  2.4161507849024302  5.8677947633344667 15.2800000000000011   T   T   T
  3.7968083762752460  7.9387811503936909 15.2800000000000011   T   T   T
  5.1774659676480637 10.0097675374529125 15.2800000000000011   T   T   T
  6.5581235590208795 12.0807539245121376 15.2800000000000011   T   T   T
  7.9387811503936963 14.1517403115713609 15.2800000000000011   T   T   T
  9.3194387417665112 16.2227266986305878 15.2800000000000011   T   T   T
  9.3194387417665094  7.2484523547072817 15.2800000000000011   T   T   T
  1.7258219892160238  9.3194387417665059 15.2800000000000011   T   T   T
  3.1064795805888394 11.3904251288257292 15.2800000000000011   T   T   T
  4.4871371719616580 13.4614115158849525 15.2800000000000011   T   T   T
  5.8677947633344756 15.5323979029441777 15.2800000000000011   T   T   T
  7.2484523547072905 17.6033842900034010 15.2800000000000011   T   T   T
  8.6291099460801064 19.6743706770626225 15.2800000000000011   T   T   T
 10.0097675374529231 21.7453570641218477 15.2800000000000011   T   T   T
 10.0097675374529196 12.7710827201985442 15.2800000000000011   T   T   T
  2.4161507849024346 14.8420691072577711 15.2800000000000011   T   T   T
  3.7968083762752505 16.9130554943169926 15.2800000000000011   T   T   T
  5.1774659676480672 18.9840418813762142 15.2800000000000011   T   T   T
  6.5581235590208848 21.0550282684354393 15.2800000000000011   T   T   T
  5.1774659676480592  1.0354931935296117 15.2800000000000011   T   T   T
 10.7000963331393280 18.2937130856898058 15.2800000000000011   T   T   T
  3.1064795805888448 20.3646994727490345 15.2800000000000011   T   T   T
  1.7258219892160205  0.3451643978432039 15.2800000000000011   T   T   T
  6.9032879568640801  1.3806575913728159 10.0000000000000000   F   F   F
  8.2839455482368987  3.4516439784320392 10.0000000000000000   F   F   F
  3.4516439784320401  0.6903287956864079 10.0000000000000000   F   F   F
  4.8323015698048559  2.7613151827456313 10.0000000000000000   F   F   F
  6.2129591611776718  4.8323015698048550 10.0000000000000000   F   F   F
  7.5936167525504894  6.9032879568640784 10.0000000000000000   F   F   F
  8.9742743439233053  8.9742743439233017 10.0000000000000000   F   F   F
  0.0000000000000000  0.0000000000000000 10.0000000000000000   F   F   F
  1.3806575913728167  2.0709863870592233 10.0000000000000000   F   F   F
  2.7613151827456335  4.1419727741184467 10.0000000000000000   F   F   F
  4.1419727741184493  6.2129591611776700 10.0000000000000000   F   F   F
  5.5226303654912670  8.2839455482368933 10.0000000000000000   F   F   F
  6.9032879568640837 10.3549319352961167 10.0000000000000000   F   F   F
  8.2839455482368987 12.4259183223553400 10.0000000000000000   F   F   F
  9.6646031396097154 14.4969047094145633 10.0000000000000000   F   F   F
  0.6903287956864100  5.5226303654912625 10.0000000000000000   F   F   F
  2.0709863870592269  7.5936167525504876 10.0000000000000000   F   F   F
  3.4516439784320427  9.6646031396097101 10.0000000000000000   F   F   F
  4.8323015698048604 11.7355895266689334 10.0000000000000000   F   F   F
  6.2129591611776798 13.8065759137281567 10.0000000000000000   F   F   F
  7.5936167525504921 15.8775623007873818 10.0000000000000000   F   F   F
  8.9742743439233088 17.9485486878466034 10.0000000000000000   F   F   F
 10.3549319352961273 20.0195350749058250 10.0000000000000000   F   F   F
  1.3806575913728201 11.0452607309825250 10.0000000000000000   F   F   F
  2.7613151827456370 13.1162471180417484 10.0000000000000000   F   F   F
  4.1419727741184538 15.1872335051009753 10.0000000000000000   F   F   F
  5.5226303654912741 17.2582198921601950 10.0000000000000000   F   F   F
  6.9032879568640855 19.3292062792194201 10.0000000000000000   F   F   F
  8.2839455482369058 21.4001926662786417 10.0000000000000000   F   F   F
  2.0709863870592318 16.5678910964737867 10.0000000000000000   F   F   F
  3.4516439784320476 18.6388774835330118 10.0000000000000000   F   F   F
  4.8323015698048648 20.7098638705922333 10.0000000000000000   F   F   F
  6.5581235590208777  3.1064795805888350 11.7599999999999980   F   F   F
  7.9387811503936927  5.1774659676480583 11.7599999999999980   F   F   F
  3.1064795805888372  2.4161507849024275 11.7599999999999980   F   F   F
  4.4871371719616526  4.4871371719616508 11.7599999999999980   F   F   F
  5.8677947633344694  6.5581235590208742 11.7599999999999980   F   F   F
  7.2484523547072879  8.6291099460800957 11.7600000000000016   F   F   F
  8.6291099460801028 10.7000963331393208 11.7600000000000016   F   F   F
  8.6291099460800993  1.7258219892160198 11.7599999999999980   F   F   F
  1.0354931935296134  3.7968083762752438 11.7599999999999980   F   F   F
  2.4161507849024302  5.8677947633344667 11.7599999999999980   F   F   F
  3.7968083762752460  7.9387811503936909 11.7599999999999980   F   F   F
  5.1774659676480637 10.0097675374529125 11.7599999999999980   F   F   F
  6.5581235590208795 12.0807539245121376 11.7600000000000016   F   F   F
  7.9387811503936963 14.1517403115713609 11.7600000000000016   F   F   F
  9.3194387417665112 16.2227266986305878 11.7600000000000016   F   F   F
  9.3194387417665094  7.2484523547072817 11.7600000000000016   F   F   F
  1.7258219892160238  9.3194387417665059 11.7599999999999980   F   F   F
  3.1064795805888394 11.3904251288257292 11.7599999999999980   F   F   F
  4.4871371719616580 13.4614115158849525 11.7600000000000016   F   F   F
  5.8677947633344756 15.5323979029441777 11.7600000000000016   F   F   F
  7.2484523547072905 17.6033842900034010 11.7600000000000016   F   F   F
  8.6291099460801064 19.6743706770626225 11.7600000000000016   F   F   F
 10.0097675374529231 21.7453570641218477 11.7600000000000016   F   F   F
 10.0097675374529196 12.7710827201985442 11.7600000000000016   F   F   F
  2.4161507849024346 14.8420691072577711 11.7600000000000016   F   F   F
  3.7968083762752505 16.9130554943169926 11.7600000000000016   F   F   F
  5.1774659676480672 18.9840418813762142 11.7600000000000016   F   F   F
  6.5581235590208848 21.0550282684354393 11.7600000000000016   F   F   F
  5.1774659676480592  1.0354931935296117 11.7599999999999980   F   F   F
 10.7000963331393280 18.2937130856898058 11.7600000000000016   F   F   F
  3.1064795805888448 20.3646994727490345 11.7600000000000016   F   F   F
  1.7258219892160205  0.3451643978432039 11.7599999999999980   F   F   F
  0.0000000000000000  0.0000000000000000 21.6799999999999962   T   T   T
  1.9559315877781569  3.6817535769941734 21.6799999999999962   T   T   T
  3.9118631755563138  7.3635071539883468 21.6799999999999962   T   T   T
  5.8677947633344694 11.0452607309825197 21.6799999999999962   T   T   T
  7.8237263511126276 14.7270143079766935 21.6799999999999962   T   T   T
  9.7796579388907858 18.4087678849708674 21.6799999999999962   T   T   T
  0.9779657938890784  1.8408767884970867 23.7800000000000011   T   T   T
  2.9338973816672347  5.5226303654912599 23.7800000000000011   T   T   T
  4.8898289694453920  9.2043839424854337 23.7800000000000011   T   T   T
  6.8457605572235476 12.8861375194796057 23.7800000000000011   T   T   T
  8.8016921450017058 16.5678910964737831 23.7800000000000011   T   T   T
 10.7576237327798623 20.2496446734679552 23.7800000000000011   T   T   T
  4.5159008717819251 21.1700830677165008 23.7800000000000011   T   T   T
  3.7105172768144428  2.7613151827456295 23.7800000000000011   T   T   T
  5.6664488645926001  6.4430687597398029 23.7800000000000011   T   T   T
  7.6223804523707557 10.1248223367339740 23.7800000000000011   T   T   T
  9.5783120401489139 13.8065759137281461 23.7800000000000011   T   T   T
  2.5599692840037678 17.4883294907223217 23.7800000000000011   T   T   T
  2.7325514829253650  0.9204383942485428 21.6799999999999962   T   T   T
  4.6884830707035219  4.6021919712427177 21.6799999999999962   T   T   T
  6.6444146584816774  8.2839455482368880 21.6799999999999962   T   T   T
  8.6003462462598339 11.9656991252310601 21.6799999999999962   T   T   T
 10.5562778340379921 15.6474527022252374 21.6799999999999962   T   T   T
  3.5379350778928496 19.3292062792194130 21.6799999999999962   T   T   T
  6.2704865608182114 20.2496446734679587 21.6799999999999962   T   T   T
  5.4651029658507300  1.8408767884970856 21.6799999999999962   T   T   T
  7.4210345536288855  5.5226303654912590 21.6799999999999962   T   T   T
  9.3769661414070420  9.2043839424854301 21.6799999999999962   T   T   T
  2.3586233852618990 12.8861375194796057 21.6799999999999962   T   T   T
  4.3145549730400532 16.5678910964737760 21.6799999999999962   T   T   T
  4.4871371719616508 -0.0000000000000006 23.7800000000000011   T   T   T
  6.4430687597398082  3.6817535769941716 23.7800000000000011   T   T   T
  8.3990003475179638  7.3635071539883459 23.7800000000000011   T   T   T
  1.3806575913728183 11.0452607309825179 23.7800000000000011   T   T   T
  3.3365891791509759 14.7270143079766935 23.7800000000000011   T   T   T
  5.2925207669291350 18.4087678849708674 23.7800000000000011   T   T   T
  8.0250722498544960 19.3292062792194130 23.7800000000000011   T   T   T
  7.2196886548870145  0.9204383942485423 23.7800000000000011   T   T   T
  9.1756202426651718  4.6021919712427160 23.7800000000000011   T   T   T
  2.1572774865200266  8.2839455482368880 23.7800000000000011   T   T   T
  4.1132090742981839 11.9656991252310636 23.7800000000000011   T   T   T
  6.0691406620763413 15.6474527022252357 23.7800000000000011   T   T   T
  9.0030380437435777 21.1700830677165008 21.6799999999999962   T   T   T
  8.1976544487760936  2.7613151827456299 21.6799999999999962   T   T   T
  1.1793116926309470  6.4430687597398029 21.6799999999999962   T   T   T
  3.1352432804091048 10.1248223367339740 21.6799999999999962   T   T   T
  5.0911748681872631 13.8065759137281514 21.6799999999999962   T   T   T
  7.0471064559654213 17.4883294907223252 21.6799999999999962   T   T   T
  0.0000000000000000  0.0000000000000000 17.4799999999999969   T   T   T
  1.9559315877781569  3.6817535769941734 17.4799999999999969   T   T   T
  3.9118631755563138  7.3635071539883468 17.4799999999999969   T   T   T
  5.8677947633344694 11.0452607309825197 17.4799999999999969   T   T   T
  7.8237263511126276 14.7270143079766935 17.4799999999999969   T   T   T
  9.7796579388907858 18.4087678849708674 17.4799999999999969   T   T   T
  0.9779657938890784  1.8408767884970867 19.5800000000000018   T   T   T
  2.9338973816672347  5.5226303654912599 19.5800000000000018   T   T   T
  4.8898289694453920  9.2043839424854337 19.5800000000000018   T   T   T
  6.8457605572235476 12.8861375194796057 19.5800000000000018   T   T   T
  8.8016921450017058 16.5678910964737831 19.5800000000000018   T   T   T
 10.7576237327798623 20.2496446734679552 19.5800000000000018   T   T   T
  4.5159008717819251 21.1700830677165008 19.5800000000000018   T   T   T
  3.7105172768144428  2.7613151827456295 19.5800000000000018   T   T   T
  5.6664488645926001  6.4430687597398029 19.5800000000000018   T   T   T
  7.6223804523707557 10.1248223367339740 19.5800000000000018   T   T   T
  9.5783120401489139 13.8065759137281461 19.5800000000000018   T   T   T
  2.5599692840037678 17.4883294907223217 19.5800000000000018   T   T   T
  2.7325514829253650  0.9204383942485428 17.4799999999999969   T   T   T
  4.6884830707035219  4.6021919712427177 17.4799999999999969   T   T   T
  6.6444146584816774  8.2839455482368880 17.4799999999999969   T   T   T
  8.6003462462598339 11.9656991252310601 17.4799999999999969   T   T   T
 10.5562778340379921 15.6474527022252374 17.4799999999999969   T   T   T
  3.5379350778928496 19.3292062792194130 17.4799999999999969   T   T   T
  6.2704865608182114 20.2496446734679587 17.4799999999999969   T   T   T
  5.4651029658507300  1.8408767884970856 17.4799999999999969   T   T   T
  7.4210345536288855  5.5226303654912590 17.4799999999999969   T   T   T
  9.3769661414070420  9.2043839424854301 17.4799999999999969   T   T   T
  2.3586233852618990 12.8861375194796057 17.4799999999999969   T   T   T
  4.3145549730400532 16.5678910964737760 17.4799999999999969   T   T   T
  4.4871371719616508 -0.0000000000000006 19.5800000000000018   T   T   T
  6.4430687597398082  3.6817535769941716 19.5800000000000018   T   T   T
  8.3990003475179638  7.3635071539883459 19.5800000000000018   T   T   T
  1.3806575913728183 11.0452607309825179 19.5800000000000018   T   T   T
  3.3365891791509759 14.7270143079766935 19.5800000000000018   T   T   T
  5.2925207669291350 18.4087678849708674 19.5800000000000018   T   T   T
  8.0250722498544960 19.3292062792194130 19.5800000000000018   T   T   T
  7.2196886548870145  0.9204383942485423 19.5800000000000018   T   T   T
  9.1756202426651718  4.6021919712427160 19.5800000000000018   T   T   T
  2.1572774865200266  8.2839455482368880 19.5800000000000018   T   T   T
  4.1132090742981839 11.9656991252310636 19.5800000000000018   T   T   T
  6.0691406620763413 15.6474527022252357 19.5800000000000018   T   T   T
  9.0030380437435777 21.1700830677165008 17.4799999999999969   T   T   T
  8.1976544487760936  2.7613151827456299 17.4799999999999969   T   T   T
  1.1793116926309470  6.4430687597398029 17.4799999999999969   T   T   T
  3.1352432804091048 10.1248223367339740 17.4799999999999969   T   T   T
  5.0911748681872631 13.8065759137281514 17.4799999999999969   T   T   T
  7.0471064559654213 17.4883294907223252 17.4799999999999969   T   T   T
  0.0000000000000000  0.0000000000000000 23.7800000000000011   T   T   T
  1.9559315877781569  3.6817535769941734 23.7800000000000011   T   T   T
  3.9118631755563138  7.3635071539883468 23.7800000000000011   T   T   T
  5.8677947633344694 11.0452607309825197 23.7800000000000011   T   T   T
  7.8237263511126276 14.7270143079766935 23.7800000000000011   T   T   T
  9.7796579388907858 18.4087678849708674 23.7800000000000011   T   T   T
  2.7325514829253650  0.9204383942485428 23.7800000000000011   T   T   T
  4.6884830707035219  4.6021919712427177 23.7800000000000011   T   T   T
  6.6444146584816774  8.2839455482368880 23.7800000000000011   T   T   T
  8.6003462462598339 11.9656991252310601 23.7800000000000011   T   T   T
 10.5562778340379921 15.6474527022252374 23.7800000000000011   T   T   T
  3.5379350778928496 19.3292062792194130 23.7800000000000011   T   T   T
  4.4871371719616508 -0.0000000000000006 21.6799999999999962   T   T   T
  6.4430687597398082  3.6817535769941716 21.6799999999999962   T   T   T
  8.3990003475179638  7.3635071539883459 21.6799999999999962   T   T   T
  1.3806575913728183 11.0452607309825179 21.6799999999999962   T   T   T
  3.3365891791509759 14.7270143079766935 21.6799999999999962   T   T   T
  5.2925207669291350 18.4087678849708674 21.6799999999999962   T   T   T
  8.0250722498544960 19.3292062792194130 21.6799999999999962   T   T   T
  7.2196886548870145  0.9204383942485423 21.6799999999999962   T   T   T
  9.1756202426651718  4.6021919712427160 21.6799999999999962   T   T   T
  2.1572774865200266  8.2839455482368880 21.6799999999999962   T   T   T
  4.1132090742981839 11.9656991252310636 21.6799999999999962   T   T   T
  6.0691406620763413 15.6474527022252357 21.6799999999999962   T   T   T
  0.0000000000000000  0.0000000000000000 19.5800000000000018   T   T   T
  1.9559315877781569  3.6817535769941734 19.5800000000000018   T   T   T
  3.9118631755563138  7.3635071539883468 19.5800000000000018   T   T   T
  5.8677947633344694 11.0452607309825197 19.5800000000000018   T   T   T
  7.8237263511126276 14.7270143079766935 19.5800000000000018   T   T   T
  9.7796579388907858 18.4087678849708674 19.5800000000000018   T   T   T
  2.7325514829253650  0.9204383942485428 19.5800000000000018   T   T   T
  4.6884830707035219  4.6021919712427177 19.5800000000000018   T   T   T
  6.6444146584816774  8.2839455482368880 19.5800000000000018   T   T   T
  8.6003462462598339 11.9656991252310601 19.5800000000000018   T   T   T
 10.5562778340379921 15.6474527022252374 19.5800000000000018   T   T   T
  3.5379350778928496 19.3292062792194130 19.5800000000000018   T   T   T
  4.4871371719616508 -0.0000000000000006 17.4799999999999969   T   T   T
  6.4430687597398082  3.6817535769941716 17.4799999999999969   T   T   T
  8.3990003475179638  7.3635071539883459 17.4799999999999969   T   T   T
  1.3806575913728183 11.0452607309825179 17.4799999999999969   T   T   T
  3.3365891791509759 14.7270143079766935 17.4799999999999969   T   T   T
  5.2925207669291350 18.4087678849708674 17.4799999999999969   T   T   T
  8.0250722498544960 19.3292062792194130 17.4799999999999969   T   T   T
  7.2196886548870145  0.9204383942485423 17.4799999999999969   T   T   T
  9.1756202426651718  4.6021919712427160 17.4799999999999969   T   T   T
  2.1572774865200266  8.2839455482368880 17.4799999999999969   T   T   T
  4.1132090742981839 11.9656991252310636 17.4799999999999969   T   T   T
  6.0691406620763413 15.6474527022252357 17.4799999999999969   T   T   T
  4.3759278092758747 10.5579698163803410 25.5800000000000018   T   T   T
  6.7759278092758750 10.5579698163803410 25.5800000000000018   T   T   T
