Ni Mo S  Ru
 1.0000000000000000
    16.6968260456890434    0.0000000000000000    0.0000000000000010
     0.0000000000000036   22.2624347275853900    0.0000000000000014
     0.0000000000000000    0.0000000000000000   42.2615028000000024
 Ni  Mo  S   Ru 
 240  84 168   2
Selective dynamics
Cartesian
 13.3574608365512368 21.1493129912061200 14.5853757000000002   T   T   T
 15.5837043093097751 20.0361912548268535 14.5853757000000002   T   T   T
  7.7918521546548885 21.1493129912061271 14.5853757000000002   T   T   T
 10.0180956274134267 20.0361912548268535 14.5853757000000002   T   T   T
 12.2443391001719704 18.9230695184475834 14.5853757000000002   T   T   T
 14.4705825729305015 17.8099477820683134 14.5853757000000002   T   T   T
  2.2262434727585450 21.1493129912061235 14.5853757000000002   T   T   T
  4.4524869455170837 20.0361912548268535 14.5853757000000002   T   T   T
  6.6787304182756184 18.9230695184475834 14.5853757000000002   T   T   T
  8.9049738910341585 17.8099477820683134 14.5853757000000002   T   T   T
 11.1312173637926985 16.6968260456890434 14.5853757000000002   T   T   T
 13.3574608365512368 15.5837043093097751 14.5853757000000002   T   T   T
 15.5837043093097716 14.4705825729305069 14.5853757000000002   T   T   T
  1.1131217363792743 18.9230695184475834 14.5853757000000002   T   T   T
  3.3393652091378105 17.8099477820683170 14.5853757000000002   T   T   T
  5.5656086818963493 16.6968260456890505 14.5853757000000002   T   T   T
  7.7918521546548876 15.5837043093097769 14.5853757000000002   T   T   T
 10.0180956274134232 14.4705825729305069 14.5853757000000002   T   T   T
 12.2443391001719686 13.3574608365512386 14.5853757000000002   T   T   T
 14.4705825729305069 12.2443391001719650 14.5853757000000002   T   T   T
  0.0000000000000036 16.6968260456890469 14.5853757000000002   T   T   T
  2.2262434727585423 15.5837043093097751 14.5853757000000002   T   T   T
  4.4524869455170819 14.4705825729305086 14.5853757000000002   T   T   T
  6.6787304182756184 13.3574608365512368 14.5853757000000002   T   T   T
  8.9049738910341567 12.2443391001719704 14.5853757000000002   T   T   T
 11.1312173637926985 11.1312173637926968 14.5853757000000002   T   T   T
 13.3574608365512351 10.0180956274134303 14.5853757000000002   T   T   T
 15.5837043093097734  8.9049738910341603 14.5853757000000002   T   T   T
  1.1131217363792711 13.3574608365512333 14.5853757000000002   T   T   T
  3.3393652091378101 12.2443391001719704 14.5853757000000002   T   T   T
  5.5656086818963484 11.1312173637926950 14.5853757000000002   T   T   T
  7.7918521546548876 10.0180956274134267 14.5853757000000002   T   T   T
 10.0180956274134267  8.9049738910341567 14.5853757000000002   T   T   T
 12.2443391001719668  7.7918521546548858 14.5853757000000002   T   T   T
 14.4705825729305051  6.6787304182756184 14.5853757000000002   T   T   T
  0.0000000000000023 11.1312173637926968 14.5853757000000002   T   T   T
  2.2262434727585418 10.0180956274134267 14.5853757000000002   T   T   T
  4.4524869455170792  8.9049738910341567 14.5853757000000002   T   T   T
  6.6787304182756184  7.7918521546548876 14.5853757000000002   T   T   T
  8.9049738910341585  6.6787304182756184 14.5853757000000002   T   T   T
 11.1312173637926950  5.5656086818963475 14.5853757000000002   T   T   T
 13.3574608365512315  4.4524869455170792 14.5853757000000002   T   T   T
 15.5837043093097734  3.3393652091378092 14.5853757000000002   T   T   T
  1.1131217363792711  7.7918521546548876 14.5853757000000002   T   T   T
  3.3393652091378092  6.6787304182756184 14.5853757000000002   T   T   T
  5.5656086818963493  5.5656086818963484 14.5853757000000002   T   T   T
  7.7918521546548867  4.4524869455170801 14.5853757000000002   T   T   T
 10.0180956274134250  3.3393652091378092 14.5853757000000002   T   T   T
 12.2443391001719668  2.2262434727585392 14.5853757000000002   T   T   T
 14.4705825729305015  1.1131217363792698 14.5853757000000002   T   T   T
  0.0000000000000011  5.5656086818963484 14.5853757000000002   T   T   T
  2.2262434727585396  4.4524869455170784 14.5853757000000002   T   T   T
  4.4524869455170792  3.3393652091378092 14.5853757000000002   T   T   T
  6.6787304182756158  2.2262434727585396 14.5853757000000002   T   T   T
  8.9049738910341567  1.1131217363792689 14.5853757000000002   T   T   T
 11.1312173637926914 -0.0000000000000006 14.5853757000000002   T   T   T
  1.1131217363792698  2.2262434727585392 14.5853757000000002   T   T   T
  3.3393652091378079  1.1131217363792698 14.5853757000000002   T   T   T
  5.5656086818963457 -0.0000000000000003 14.5853757000000002   T   T   T
  0.0000000000000000  0.0000000000000000 14.5853757000000002   T   T   T
 13.9140217047408719 19.4796303866372149 16.3453757000000053   T   T   T
 16.1402651774994084 18.3665086502579520 16.3453757000000053   T   T   T
  8.3484130228445235 19.4796303866372220 16.3453757000000017   T   T   T
 10.5746564956030618 18.3665086502579520 16.3453757000000017   T   T   T
 12.8008999683616018 17.2533869138786748 16.3453757000000053   T   T   T
 15.0271434411201383 16.1402651774994119 16.3453757000000053   T   T   T
  2.7828043409481764 19.4796303866372220 16.3453757000000017   T   T   T
  5.0090478137067160 18.3665086502579520 16.3453757000000017   T   T   T
  7.2352912864652543 17.2533869138786820 16.3453757000000017   T   T   T
  9.4615347592237917 16.1402651774994119 16.3453757000000017   T   T   T
 11.6877782319823318 15.0271434411201401 16.3453757000000017   T   T   T
 13.9140217047408701 13.9140217047408736 16.3453757000000017   T   T   T
 16.1402651774994084 12.8008999683616036 16.3453757000000017   T   T   T
  1.6696826045689084 17.2533869138786820 16.3453757000000017   T   T   T
  3.8959260773274451 16.1402651774994119 16.3453757000000017   T   T   T
  6.1221695500859843 15.0271434411201437 16.3453757000000017   T   T   T
  8.3484130228445217 13.9140217047408736 16.3453757000000017   T   T   T
 10.5746564956030618 12.8008999683616036 16.3453757000000017   T   T   T
 12.8008999683615983 11.6877782319823336 16.3453757000000017   T   T   T
 15.0271434411201419 10.5746564956030618 16.3453757000000017   T   T   T
  0.5565608681896371 15.0271434411201437 16.3453757000000017   T   T   T
  2.7828043409481764 13.9140217047408719 16.3453757000000017   T   T   T
  5.0090478137067143 12.8008999683616089 16.3453757000000017   T   T   T
  7.2352912864652525 11.6877782319823353 16.3453757000000017   T   T   T
  9.4615347592237917 10.5746564956030653 16.3453757000000017   T   T   T
 11.6877782319823300  9.4615347592237953 16.3453757000000017   T   T   T
 13.9140217047408683  8.3484130228445235 16.3453757000000017   T   T   T
 16.1402651774994048  7.2352912864652534 16.3453757000000017   T   T   T
  1.6696826045689053 11.6877782319823300 16.3453757000000017   T   T   T
  3.8959260773274447 10.5746564956030653 16.3453757000000017   T   T   T
  6.1221695500859834  9.4615347592237917 16.3453757000000017   T   T   T
  8.3484130228445217  8.3484130228445235 16.3453757000000017   T   T   T
 10.5746564956030618  7.2352912864652534 16.3453757000000017   T   T   T
 12.8008999683615983  6.1221695500859825 16.3453757000000017   T   T   T
 15.0271434411201383  5.0090478137067125 16.3453757000000017   T   T   T
  0.5565608681896367  9.4615347592237917 16.3453757000000017   T   T   T
  2.7828043409481746  8.3484130228445235 16.3453757000000017   T   T   T
  5.0090478137067116  7.2352912864652534 16.3453757000000017   T   T   T
  7.2352912864652525  6.1221695500859843 16.3453757000000017   T   T   T
  9.4615347592237899  5.0090478137067143 16.3453757000000017   T   T   T
 11.6877782319823282  3.8959260773274424 16.3453757000000017   T   T   T
 13.9140217047408683  2.7828043409481742 16.3453757000000017   T   T   T
 16.1402651774994084  1.6696826045689039 16.3453757000000017   T   T   T
  1.6696826045689050  6.1221695500859852 16.3453757000000017   T   T   T
  3.8959260773274433  5.0090478137067160 16.3453757000000017   T   T   T
  6.1221695500859843  3.8959260773274442 16.3453757000000017   T   T   T
  8.3484130228445199  2.7828043409481751 16.3453757000000017   T   T   T
 10.5746564956030600  1.6696826045689050 16.3453757000000017   T   T   T
 12.8008999683615983  0.5565608681896346 16.3453757000000017   T   T   T
 15.0271434411201401 21.7058738593957550 16.3453757000000053   T   T   T
  0.5565608681896356  3.8959260773274438 16.3453757000000017   T   T   T
  2.7828043409481733  2.7828043409481742 16.3453757000000017   T   T   T
  5.0090478137067125  1.6696826045689048 16.3453757000000017   T   T   T
  7.2352912864652508  0.5565608681896349 16.3453757000000017   T   T   T
  9.4615347592237953 21.7058738593957550 16.3453757000000053   T   T   T
 11.6877782319823336 20.5927521230164885 16.3453757000000053   T   T   T
  1.6696826045689042  0.5565608681896350 16.3453757000000017   T   T   T
  3.8959260773274460 21.7058738593957585 16.3453757000000017   T   T   T
  6.1221695500859861 20.5927521230164885 16.3453757000000017   T   T   T
  0.5565608681896380 20.5927521230164885 16.3453757000000017   T   T   T
 13.3574608365512368 21.1493129912061200 11.0653757000000041   F   F   F
 15.5837043093097751 20.0361912548268535 11.0653757000000041   F   F   F
  7.7918521546548885 21.1493129912061271 11.0653757000000041   F   F   F
 10.0180956274134267 20.0361912548268535 11.0653757000000041   F   F   F
 12.2443391001719704 18.9230695184475834 11.0653757000000041   F   F   F
 14.4705825729305015 17.8099477820683134 11.0653757000000041   F   F   F
  2.2262434727585450 21.1493129912061235 11.0653757000000041   F   F   F
  4.4524869455170837 20.0361912548268535 11.0653757000000041   F   F   F
  6.6787304182756184 18.9230695184475834 11.0653757000000041   F   F   F
  8.9049738910341585 17.8099477820683134 11.0653757000000041   F   F   F
 11.1312173637926985 16.6968260456890434 11.0653757000000041   F   F   F
 13.3574608365512368 15.5837043093097751 11.0653757000000041   F   F   F
 15.5837043093097716 14.4705825729305069 11.0653757000000041   F   F   F
  1.1131217363792743 18.9230695184475834 11.0653757000000041   F   F   F
  3.3393652091378105 17.8099477820683170 11.0653757000000041   F   F   F
  5.5656086818963493 16.6968260456890505 11.0653757000000041   F   F   F
  7.7918521546548876 15.5837043093097769 11.0653757000000041   F   F   F
 10.0180956274134232 14.4705825729305069 11.0653757000000041   F   F   F
 12.2443391001719686 13.3574608365512386 11.0653757000000041   F   F   F
 14.4705825729305069 12.2443391001719650 11.0653757000000041   F   F   F
  0.0000000000000036 16.6968260456890469 11.0653757000000041   F   F   F
  2.2262434727585423 15.5837043093097751 11.0653757000000041   F   F   F
  4.4524869455170819 14.4705825729305086 11.0653757000000041   F   F   F
  6.6787304182756184 13.3574608365512368 11.0653757000000041   F   F   F
  8.9049738910341567 12.2443391001719704 11.0653757000000041   F   F   F
 11.1312173637926985 11.1312173637926968 11.0653757000000041   F   F   F
 13.3574608365512351 10.0180956274134303 11.0653757000000041   F   F   F
 15.5837043093097734  8.9049738910341603 11.0653757000000041   F   F   F
  1.1131217363792711 13.3574608365512333 11.0653757000000006   F   F   F
  3.3393652091378101 12.2443391001719704 11.0653757000000041   F   F   F
  5.5656086818963484 11.1312173637926950 11.0653757000000041   F   F   F
  7.7918521546548876 10.0180956274134267 11.0653757000000041   F   F   F
 10.0180956274134267  8.9049738910341567 11.0653757000000041   F   F   F
 12.2443391001719668  7.7918521546548858 11.0653757000000041   F   F   F
 14.4705825729305051  6.6787304182756184 11.0653757000000041   F   F   F
  0.0000000000000023 11.1312173637926968 11.0653757000000006   F   F   F
  2.2262434727585418 10.0180956274134267 11.0653757000000006   F   F   F
  4.4524869455170792  8.9049738910341567 11.0653757000000006   F   F   F
  6.6787304182756184  7.7918521546548876 11.0653757000000006   F   F   F
  8.9049738910341585  6.6787304182756184 11.0653757000000041   F   F   F
 11.1312173637926950  5.5656086818963475 11.0653757000000041   F   F   F
 13.3574608365512315  4.4524869455170792 11.0653757000000041   F   F   F
 15.5837043093097734  3.3393652091378092 11.0653757000000041   F   F   F
  1.1131217363792711  7.7918521546548876 11.0653757000000006   F   F   F
  3.3393652091378092  6.6787304182756184 11.0653757000000006   F   F   F
  5.5656086818963493  5.5656086818963484 11.0653757000000006   F   F   F
  7.7918521546548867  4.4524869455170801 11.0653757000000006   F   F   F
 10.0180956274134250  3.3393652091378092 11.0653757000000006   F   F   F
 12.2443391001719668  2.2262434727585392 11.0653757000000006   F   F   F
 14.4705825729305015  1.1131217363792698 11.0653757000000041   F   F   F
  0.0000000000000011  5.5656086818963484 11.0653757000000006   F   F   F
  2.2262434727585396  4.4524869455170784 11.0653757000000006   F   F   F
  4.4524869455170792  3.3393652091378092 11.0653757000000006   F   F   F
  6.6787304182756158  2.2262434727585396 11.0653757000000006   F   F   F
  8.9049738910341567  1.1131217363792689 11.0653757000000006   F   F   F
 11.1312173637926914 -0.0000000000000006 11.0653757000000006   F   F   F
  1.1131217363792698  2.2262434727585392 11.0653757000000006   F   F   F
  3.3393652091378079  1.1131217363792698 11.0653757000000006   F   F   F
  5.5656086818963457 -0.0000000000000003 11.0653757000000006   F   F   F
  0.0000000000000000  0.0000000000000000 11.0653757000000006   F   F   F
 13.9140217047408719 19.4796303866372149 12.8253757000000057   F   F   F
 16.1402651774994084 18.3665086502579520 12.8253757000000057   F   F   F
  8.3484130228445235 19.4796303866372220 12.8253757000000057   F   F   F
 10.5746564956030618 18.3665086502579520 12.8253757000000057   F   F   F
 12.8008999683616018 17.2533869138786748 12.8253757000000057   F   F   F
 15.0271434411201383 16.1402651774994119 12.8253757000000057   F   F   F
  2.7828043409481764 19.4796303866372220 12.8253757000000057   F   F   F
  5.0090478137067160 18.3665086502579520 12.8253757000000057   F   F   F
  7.2352912864652543 17.2533869138786820 12.8253757000000057   F   F   F
  9.4615347592237917 16.1402651774994119 12.8253757000000057   F   F   F
 11.6877782319823318 15.0271434411201401 12.8253757000000057   F   F   F
 13.9140217047408701 13.9140217047408736 12.8253757000000057   F   F   F
 16.1402651774994084 12.8008999683616036 12.8253757000000057   F   F   F
  1.6696826045689084 17.2533869138786820 12.8253757000000057   F   F   F
  3.8959260773274451 16.1402651774994119 12.8253757000000057   F   F   F
  6.1221695500859843 15.0271434411201437 12.8253757000000057   F   F   F
  8.3484130228445217 13.9140217047408736 12.8253757000000057   F   F   F
 10.5746564956030618 12.8008999683616036 12.8253757000000057   F   F   F
 12.8008999683615983 11.6877782319823336 12.8253757000000057   F   F   F
 15.0271434411201419 10.5746564956030618 12.8253757000000057   F   F   F
  0.5565608681896371 15.0271434411201437 12.8253757000000057   F   F   F
  2.7828043409481764 13.9140217047408719 12.8253757000000057   F   F   F
  5.0090478137067143 12.8008999683616089 12.8253757000000057   F   F   F
  7.2352912864652525 11.6877782319823353 12.8253757000000057   F   F   F
  9.4615347592237917 10.5746564956030653 12.8253757000000057   F   F   F
 11.6877782319823300  9.4615347592237953 12.8253757000000057   F   F   F
 13.9140217047408683  8.3484130228445235 12.8253757000000057   F   F   F
 16.1402651774994048  7.2352912864652534 12.8253757000000057   F   F   F
  1.6696826045689053 11.6877782319823300 12.8253757000000022   F   F   F
  3.8959260773274447 10.5746564956030653 12.8253757000000022   F   F   F
  6.1221695500859834  9.4615347592237917 12.8253757000000057   F   F   F
  8.3484130228445217  8.3484130228445235 12.8253757000000057   F   F   F
 10.5746564956030618  7.2352912864652534 12.8253757000000057   F   F   F
 12.8008999683615983  6.1221695500859825 12.8253757000000057   F   F   F
 15.0271434411201383  5.0090478137067125 12.8253757000000057   F   F   F
  0.5565608681896367  9.4615347592237917 12.8253757000000022   F   F   F
  2.7828043409481746  8.3484130228445235 12.8253757000000022   F   F   F
  5.0090478137067116  7.2352912864652534 12.8253757000000022   F   F   F
  7.2352912864652525  6.1221695500859843 12.8253757000000022   F   F   F
  9.4615347592237899  5.0090478137067143 12.8253757000000022   F   F   F
 11.6877782319823282  3.8959260773274424 12.8253757000000057   F   F   F
 13.9140217047408683  2.7828043409481742 12.8253757000000057   F   F   F
 16.1402651774994084  1.6696826045689039 12.8253757000000057   F   F   F
  1.6696826045689050  6.1221695500859852 12.8253757000000022   F   F   F
  3.8959260773274433  5.0090478137067160 12.8253757000000022   F   F   F
  6.1221695500859843  3.8959260773274442 12.8253757000000022   F   F   F
  8.3484130228445199  2.7828043409481751 12.8253757000000022   F   F   F
 10.5746564956030600  1.6696826045689050 12.8253757000000022   F   F   F
 12.8008999683615983  0.5565608681896346 12.8253757000000022   F   F   F
 15.0271434411201401 21.7058738593957550 12.8253757000000057   F   F   F
  0.5565608681896356  3.8959260773274438 12.8253757000000022   F   F   F
  2.7828043409481733  2.7828043409481742 12.8253757000000022   F   F   F
  5.0090478137067125  1.6696826045689048 12.8253757000000022   F   F   F
  7.2352912864652508  0.5565608681896349 12.8253757000000022   F   F   F
  9.4615347592237953 21.7058738593957550 12.8253757000000057   F   F   F
 11.6877782319823336 20.5927521230164885 12.8253757000000057   F   F   F
  1.6696826045689042  0.5565608681896350 12.8253757000000022   F   F   F
  3.8959260773274460 21.7058738593957585 12.8253757000000057   F   F   F
  6.1221695500859861 20.5927521230164885 12.8253757000000057   F   F   F
  0.5565608681896380 20.5927521230164885 12.8253757000000057   F   F   F
  1.8552028940582148 22.2624347274263741 20.2711764000000123   T   T   T
  1.8552028940582117  3.1803478180674669 20.2711764000000052   T   T   T
  4.6380072350063850  1.5901739089542257 20.2711764000000052   T   T   T
  7.4208115759545619 22.2624347274263741 20.2711764000000123   T   T   T
  1.8552028940582124  6.3606956362939524 20.2711764000000052   T   T   T
  4.6380072350063859  4.7705217271807108 20.2711764000000052   T   T   T
  7.4208115759545592  3.1803478180674678 20.2711764000000052   T   T   T
 10.2036159169027361  1.5901739089542257 20.2711764000000052   T   T   T
 12.9864202578509129 22.2624347274263741 20.2711764000000123   T   T   T
  1.8552028940582128  9.5410434545204357 20.2711764000000052   T   T   T
  4.6380072350063859  7.9508695454071949 20.2711764000000052   T   T   T
  7.4208115759545592  6.3606956362939524 20.2711764000000052   T   T   T
 10.2036159169027361  4.7705217271807108 20.2711764000000052   T   T   T
 12.9864202578509094  3.1803478180674678 20.2711764000000123   T   T   T
 15.7692245987990827  1.5901739089542253 20.2711764000000123   T   T   T
  1.8552028940582133 12.7213912727469189 20.2711764000000052   T   T   T
  4.6380072350063868 11.1312173636336809 20.2711764000000052   T   T   T
  7.4208115759545601  9.5410434545204357 20.2711764000000052   T   T   T
 10.2036159169027378  7.9508695454071923 20.2711764000000123   T   T   T
 12.9864202578509111  6.3606956362939515 20.2711764000000123   T   T   T
 15.7692245987990827  4.7705217271807108 20.2711764000000052   T   T   T
  1.8552028940582139 15.9017390909734022 20.2711764000000052   T   T   T
  4.6380072350063877 14.3115651818601606 20.2711764000000052   T   T   T
  7.4208115759545601 12.7213912727469172 20.2711764000000123   T   T   T
 10.2036159169027378 11.1312173636336755 20.2711764000000123   T   T   T
 12.9864202578509111  9.5410434545204339 20.2711764000000052   T   T   T
 15.7692245987990844  7.9508695454071940 20.2711764000000052   T   T   T
  1.8552028940582144 19.0820869091998908 20.2711764000000052   T   T   T
  4.6380072350063877 17.4919130000866474 20.2711764000000123   T   T   T
  7.4208115759545610 15.9017390909734022 20.2711764000000123   T   T   T
 10.2036159169027378 14.3115651818601606 20.2711764000000052   T   T   T
 12.9864202578509111 12.7213912727469189 20.2711764000000052   T   T   T
 15.7692245987990844 11.1312173636336809 20.2711764000000052   T   T   T
  4.6380072350063886 20.6722608183131271 20.2711764000000123   T   T   T
  7.4208115759545610 19.0820869091998908 20.2711764000000052   T   T   T
 10.2036159169027396 17.4919130000866474 20.2711764000000052   T   T   T
 12.9864202578509111 15.9017390909734040 20.2711764000000052   T   T   T
 15.7692245987990844 14.3115651818601641 20.2711764000000123   T   T   T
 10.2036159169027396 20.6722608183131307 20.2711764000000123   T   T   T
 12.9864202578509129 19.0820869091998837 20.2711764000000123   T   T   T
 15.7692245987990862 17.4919130000866474 20.2711764000000123   T   T   T
 15.7692245987990862 20.6722608183131307 20.2711764000000123   T   T   T
  0.9276014468899657  1.5901739092722604 26.9603264000000031   T   T   T
  0.9276014468899663  4.7705217274987435 26.9603264000000031   T   T   T
  3.7104057878381393  3.1803478183855023 26.9603264000000031   T   T   T
  6.4932101287863144  1.5901739092722604 26.9603264000000031   T   T   T
  0.9276014468899668  7.9508695457252294 26.9603264000000031   T   T   T
  3.7104057878381398  6.3606956366119869 26.9603264000000031   T   T   T
  6.4932101287863153  4.7705217274987435 26.9603264000000031   T   T   T
  9.2760144697344877  3.1803478183855023 26.9603264000000031   T   T   T
 12.0588188106826610  1.5901739092722607 26.9603264000000031   T   T   T
  0.9276014468899673 11.1312173639517145 26.9603264000000031   T   T   T
  3.7104057878381402  9.5410434548384675 26.9603264000000031   T   T   T
  6.4932101287863153  7.9508695457252276 26.9603264000000031   T   T   T
  9.2760144697344895  6.3606956366119851 26.9603264000000031   T   T   T
 12.0588188106826610  4.7705217274987435 26.9603264000000031   T   T   T
 14.8416231516308343  3.1803478183855023 26.9603264000000031   T   T   T
  0.9276014468899678 14.3115651821781977 26.9603264000000031   T   T   T
  3.7104057878381411 12.7213912730649543 26.9603264000000031   T   T   T
  6.4932101287863162 11.1312173639517127 26.9603264000000031   T   T   T
  9.2760144697344895  9.5410434548384675 26.9603264000000031   T   T   T
 12.0588188106826628  7.9508695457252276 26.9603264000000031   T   T   T
 14.8416231516308361  6.3606956366119878 26.9603264000000031   T   T   T
  0.9276014468899683 17.4919130004046792 26.9603264000000031   T   T   T
  3.7104057878381416 15.9017390912914340 26.9603264000000031   T   T   T
  6.4932101287863171 14.3115651821781977 26.9603264000000031   T   T   T
  9.2760144697344895 12.7213912730649543 26.9603264000000031   T   T   T
 12.0588188106826628 11.1312173639517091 26.9603264000000031   T   T   T
 14.8416231516308361  9.5410434548384710 26.9603264000000031   T   T   T
  0.9276014468899688 20.6722608186311660 26.9603264000000031   T   T   T
  3.7104057878381420 19.0820869095179155 26.9603264000000031   T   T   T
  6.4932101287863171 17.4919130004046792 26.9603264000000031   T   T   T
  9.2760144697344895 15.9017390912914411 26.9603264000000031   T   T   T
 12.0588188106826628 14.3115651821781942 26.9603264000000031   T   T   T
 14.8416231516308361 12.7213912730649561 26.9603264000000031   T   T   T
  3.7104057878381389  0.0000000001590152 26.9603264000000031   T   T   T
  6.4932101287863180 20.6722608186311660 26.9603264000000031   T   T   T
  9.2760144697344913 19.0820869095179191 26.9603264000000031   T   T   T
 12.0588188106826646 17.4919130004046792 26.9603264000000031   T   T   T
 14.8416231516308361 15.9017390912914411 26.9603264000000031   T   T   T
  9.2760144697344877  0.0000000001590102 26.9603264000000031   T   T   T
 12.0588188106826646 20.6722608186311625 26.9603264000000031   T   T   T
 14.8416231516308379 19.0820869095179226 26.9603264000000031   T   T   T
 14.8416231516308343  0.0000000001590152 26.9603263999999960   T   T   T
  1.8552028940582139 22.2624347274263741 25.2345257000000025   T   T   T
  1.8552028940582108  3.1803478180674665 25.2345257000000025   T   T   T
  4.6380072350063841  1.5901739089542253 25.2345257000000025   T   T   T
  7.4208115759545610 22.2624347274263741 25.2345257000000096   T   T   T
  1.8552028940582115  6.3606956362939524 25.2345257000000025   T   T   T
  4.6380072350063850  4.7705217271807099 25.2345257000000096   T   T   T
  7.4208115759545583  3.1803478180674669 25.2345257000000025   T   T   T
 10.2036159169027361  1.5901739089542253 25.2345257000000025   T   T   T
 12.9864202578509129 22.2624347274263741 25.2345257000000096   T   T   T
  1.8552028940582119  9.5410434545204357 25.2345257000000096   T   T   T
  4.6380072350063850  7.9508695454071949 25.2345257000000025   T   T   T
  7.4208115759545583  6.3606956362939524 25.2345257000000025   T   T   T
 10.2036159169027361  4.7705217271807099 25.2345257000000025   T   T   T
 12.9864202578509094  3.1803478180674669 25.2345257000000025   T   T   T
 15.7692245987990827  1.5901739089542251 25.2345257000000025   T   T   T
  1.8552028940582124 12.7213912727469189 25.2345257000000025   T   T   T
  4.6380072350063859 11.1312173636336809 25.2345257000000025   T   T   T
  7.4208115759545592  9.5410434545204357 25.2345257000000025   T   T   T
 10.2036159169027378  7.9508695454071923 25.2345257000000025   T   T   T
 12.9864202578509111  6.3606956362939515 25.2345257000000025   T   T   T
 15.7692245987990827  4.7705217271807099 25.2345257000000025   T   T   T
  1.8552028940582130 15.9017390909734022 25.2345257000000025   T   T   T
  4.6380072350063868 14.3115651818601606 25.2345257000000025   T   T   T
  7.4208115759545592 12.7213912727469172 25.2345257000000025   T   T   T
 10.2036159169027378 11.1312173636336755 25.2345257000000025   T   T   T
 12.9864202578509111  9.5410434545204339 25.2345257000000025   T   T   T
 15.7692245987990844  7.9508695454071940 25.2345257000000025   T   T   T
  1.8552028940582135 19.0820869091998908 25.2345257000000025   T   T   T
  4.6380072350063868 17.4919130000866474 25.2345257000000025   T   T   T
  7.4208115759545601 15.9017390909734022 25.2345257000000025   T   T   T
 10.2036159169027378 14.3115651818601606 25.2345257000000025   T   T   T
 12.9864202578509111 12.7213912727469189 25.2345257000000025   T   T   T
 15.7692245987990844 11.1312173636336809 25.2345257000000096   T   T   T
  4.6380072350063877 20.6722608183131271 25.2345257000000025   T   T   T
  7.4208115759545601 19.0820869091998908 25.2345257000000025   T   T   T
 10.2036159169027396 17.4919130000866474 25.2345257000000025   T   T   T
 12.9864202578509111 15.9017390909734040 25.2345257000000096   T   T   T
 15.7692245987990844 14.3115651818601641 25.2345257000000096   T   T   T
 10.2036159169027396 20.6722608183131307 25.2345257000000096   T   T   T
 12.9864202578509129 19.0820869091998837 25.2345257000000096   T   T   T
 15.7692245987990862 17.4919130000866474 25.2345257000000096   T   T   T
 15.7692245987990862 20.6722608183131307 25.2345257000000025   T   T   T
  0.9276014468899666  1.5901739092722609 18.5453757000000046   T   T   T
  0.9276014468899672  4.7705217274987435 18.5453757000000046   T   T   T
  3.7104057878381407  3.1803478183855032 18.5453757000000046   T   T   T
  6.4932101287863153  1.5901739092722609 18.5453757000000046   T   T   T
  0.9276014468899677  7.9508695457252303 18.5453757000000046   T   T   T
  3.7104057878381411  6.3606956366119878 18.5453757000000046   T   T   T
  6.4932101287863162  4.7705217274987444 18.5453757000000046   T   T   T
  9.2760144697344877  3.1803478183855032 18.5453757000000046   T   T   T
 12.0588188106826610  1.5901739092722613 18.5453757000000046   T   T   T
  0.9276014468899682 11.1312173639517145 18.5453757000000046   T   T   T
  3.7104057878381416  9.5410434548384693 18.5453757000000046   T   T   T
  6.4932101287863162  7.9508695457252294 18.5453757000000046   T   T   T
  9.2760144697344895  6.3606956366119869 18.5453757000000046   T   T   T
 12.0588188106826610  4.7705217274987444 18.5453757000000117   T   T   T
 14.8416231516308343  3.1803478183855032 18.5453757000000117   T   T   T
  0.9276014468899687 14.3115651821781977 18.5453757000000046   T   T   T
  3.7104057878381425 12.7213912730649543 18.5453757000000046   T   T   T
  6.4932101287863171 11.1312173639517127 18.5453757000000046   T   T   T
  9.2760144697344895  9.5410434548384693 18.5453757000000117   T   T   T
 12.0588188106826628  7.9508695457252294 18.5453757000000117   T   T   T
 14.8416231516308361  6.3606956366119887 18.5453757000000117   T   T   T
  0.9276014468899692 17.4919130004046792 18.5453757000000046   T   T   T
  3.7104057878381429 15.9017390912914340 18.5453757000000046   T   T   T
  6.4932101287863180 14.3115651821781977 18.5453757000000117   T   T   T
  9.2760144697344895 12.7213912730649543 18.5453757000000117   T   T   T
 12.0588188106826628 11.1312173639517091 18.5453757000000117   T   T   T
 14.8416231516308361  9.5410434548384728 18.5453757000000046   T   T   T
  0.9276014468899697 20.6722608186311660 18.5453757000000046   T   T   T
  3.7104057878381433 19.0820869095179155 18.5453757000000117   T   T   T
  6.4932101287863180 17.4919130004046792 18.5453757000000117   T   T   T
  9.2760144697344895 15.9017390912914411 18.5453757000000117   T   T   T
 12.0588188106826628 14.3115651821781942 18.5453757000000046   T   T   T
 14.8416231516308361 12.7213912730649561 18.5453757000000046   T   T   T
  3.7104057878381402  0.0000000001590157 18.5453757000000117   T   T   T
  6.4932101287863189 20.6722608186311660 18.5453757000000117   T   T   T
  9.2760144697344913 19.0820869095179191 18.5453757000000046   T   T   T
 12.0588188106826646 17.4919130004046792 18.5453757000000046   T   T   T
 14.8416231516308361 15.9017390912914411 18.5453757000000046   T   T   T
  9.2760144697344877  0.0000000001590108 18.5453757000000046   T   T   T
 12.0588188106826646 20.6722608186311625 18.5453757000000046   T   T   T
 14.8416231516308379 19.0820869095179226 18.5453757000000046   T   T   T
 14.8416231516308343  0.0000000001590157 18.5453757000000046   T   T   T
  0.9276014468899664  1.5901739092722604 21.9969770999999987   T   T   T
  0.9276014468899669  4.7705217274987435 21.9969770999999987   T   T   T
  3.7104057878381407  3.1803478183855023 21.9969770999999987   T   T   T
  6.4932101287863153  1.5901739092722607 21.9969770999999987   T   T   T
  0.9276014468899675  7.9508695457252294 21.9969770999999987   T   T   T
  3.7104057878381411  6.3606956366119878 21.9969770999999987   T   T   T
  6.4932101287863162  4.7705217274987435 21.9969770999999987   T   T   T
  9.2760144697344877  3.1803478183855023 21.9969770999999987   T   T   T
 12.0588188106826610  1.5901739092722609 21.9969770999999987   T   T   T
  0.9276014468899679 11.1312173639517145 21.9969770999999987   T   T   T
  3.7104057878381416  9.5410434548384693 21.9969770999999987   T   T   T
  6.4932101287863162  7.9508695457252276 21.9969770999999987   T   T   T
  9.2760144697344895  6.3606956366119869 21.9969770999999987   T   T   T
 12.0588188106826610  4.7705217274987435 21.9969771000000129   T   T   T
 14.8416231516308343  3.1803478183855023 21.9969771000000129   T   T   T
  0.9276014468899685 14.3115651821781977 21.9969770999999987   T   T   T
  3.7104057878381425 12.7213912730649543 21.9969770999999987   T   T   T
  6.4932101287863171 11.1312173639517127 21.9969770999999987   T   T   T
  9.2760144697344895  9.5410434548384693 21.9969771000000129   T   T   T
 12.0588188106826628  7.9508695457252294 21.9969771000000129   T   T   T
 14.8416231516308361  6.3606956366119887 21.9969771000000129   T   T   T
  0.9276014468899689 17.4919130004046792 21.9969770999999987   T   T   T
  3.7104057878381429 15.9017390912914340 21.9969770999999987   T   T   T
  6.4932101287863180 14.3115651821781977 21.9969771000000129   T   T   T
  9.2760144697344895 12.7213912730649543 21.9969771000000129   T   T   T
 12.0588188106826628 11.1312173639517091 21.9969771000000129   T   T   T
 14.8416231516308361  9.5410434548384728 21.9969771000000129   T   T   T
  0.9276014468899695 20.6722608186311660 21.9969770999999987   T   T   T
  3.7104057878381433 19.0820869095179155 21.9969771000000129   T   T   T
  6.4932101287863180 17.4919130004046792 21.9969771000000129   T   T   T
  9.2760144697344895 15.9017390912914411 21.9969771000000129   T   T   T
 12.0588188106826628 14.3115651821781942 21.9969771000000129   T   T   T
 14.8416231516308361 12.7213912730649561 21.9969771000000129   T   T   T
  3.7104057878381402  0.0000000001590155 21.9969771000000129   T   T   T
  6.4932101287863189 20.6722608186311660 21.9969771000000129   T   T   T
  9.2760144697344913 19.0820869095179191 21.9969771000000129   T   T   T
 12.0588188106826646 17.4919130004046792 21.9969771000000129   T   T   T
 14.8416231516308361 15.9017390912914411 21.9969771000000129   T   T   T
  9.2760144697344877  0.0000000001590106 21.9969771000000058   T   T   T
 12.0588188106826646 20.6722608186311625 21.9969771000000129   T   T   T
 14.8416231516308379 19.0820869095179226 21.9969771000000058   T   T   T
 14.8416231516308343  0.0000000001590155 21.9969771000000058   T   T   T
  1.8552028940582139 22.2624347274263741 28.6861270999999967   T   T   T
  1.8552028940582108  3.1803478180674665 28.6861270999999967   T   T   T
  4.6380072350063841  1.5901739089542253 28.6861270999999967   T   T   T
  7.4208115759545619 22.2624347274263741 28.6861271000000038   T   T   T
  1.8552028940582115  6.3606956362939515 28.6861270999999967   T   T   T
  4.6380072350063850  4.7705217271807099 28.6861271000000038   T   T   T
  7.4208115759545592  3.1803478180674669 28.6861271000000038   T   T   T
 10.2036159169027343  1.5901739089542253 28.6861270999999967   T   T   T
 12.9864202578509111 22.2624347274263741 28.6861271000000038   T   T   T
  1.8552028940582119  9.5410434545204339 28.6861271000000038   T   T   T
  4.6380072350063850  7.9508695454071940 28.6861271000000038   T   T   T
  7.4208115759545592  6.3606956362939515 28.6861270999999967   T   T   T
 10.2036159169027343  4.7705217271807099 28.6861270999999967   T   T   T
 12.9864202578509076  3.1803478180674669 28.6861270999999967   T   T   T
 15.7692245987990809  1.5901739089542251 28.6861270999999967   T   T   T
  1.8552028940582124 12.7213912727469189 28.6861271000000038   T   T   T
  4.6380072350063859 11.1312173636336791 28.6861270999999967   T   T   T
  7.4208115759545601  9.5410434545204339 28.6861270999999967   T   T   T
 10.2036159169027361  7.9508695454071914 28.6861270999999967   T   T   T
 12.9864202578509094  6.3606956362939497 28.6861270999999967   T   T   T
 15.7692245987990809  4.7705217271807099 28.6861270999999967   T   T   T
  1.8552028940582130 15.9017390909734022 28.6861270999999967   T   T   T
  4.6380072350063868 14.3115651818601606 28.6861270999999967   T   T   T
  7.4208115759545601 12.7213912727469172 28.6861270999999967   T   T   T
 10.2036159169027361 11.1312173636336738 28.6861270999999967   T   T   T
 12.9864202578509094  9.5410434545204321 28.6861270999999967   T   T   T
 15.7692245987990827  7.9508695454071923 28.6861270999999967   T   T   T
  1.8552028940582135 19.0820869091998908 28.6861270999999967   T   T   T
  4.6380072350063868 17.4919130000866474 28.6861270999999967   T   T   T
  7.4208115759545610 15.9017390909734022 28.6861270999999967   T   T   T
 10.2036159169027361 14.3115651818601606 28.6861270999999967   T   T   T
 12.9864202578509094 12.7213912727469189 28.6861270999999967   T   T   T
 15.7692245987990827 11.1312173636336791 28.6861271000000038   T   T   T
  4.6380072350063877 20.6722608183131271 28.6861270999999967   T   T   T
  7.4208115759545610 19.0820869091998908 28.6861270999999967   T   T   T
 10.2036159169027378 17.4919130000866474 28.6861270999999967   T   T   T
 12.9864202578509094 15.9017390909734040 28.6861271000000038   T   T   T
 15.7692245987990827 14.3115651818601641 28.6861271000000038   T   T   T
 10.2036159169027378 20.6722608183131307 28.6861271000000038   T   T   T
 12.9864202578509111 19.0820869091998837 28.6861271000000038   T   T   T
 15.7692245987990844 17.4919130000866474 28.6861271000000038   T   T   T
 15.7692245987990844 20.6722608183131307 28.6861271000000038   T   T   T
  7.0126664696275531 10.9954708105756946 31.1961271000000018   T   T   T
  9.4126664696275526 10.9954708105756946 31.1961271000000018   T   T   T
