Ni B  Mo
 1.0000000000000000
    12.4450793488832367    0.0000000000000000    0.0000000000000008
     5.9736380874639492   16.9253079144812055    0.0000000000000011
     0.0000000000000000    0.0000000000000000   34.1774999999999949
 Ni  B   Mo 
 272  64  64
Selective dynamics
Cartesian
  5.4758349135086197 13.4406856967938957 18.0683499999999988   T   T   T
  7.4670476093299385 14.9340952186598876 18.0683499999999988   T   T   T
  9.4582603051512564 16.4275047405258725 18.0683499999999988   T   T   T
  2.9868190437319746  8.4626539572405992 18.0683499999999988   T   T   T
  4.9780317395532911  9.9560634791065876 18.0683499999999988   T   T   T
  6.9692444353746090 11.4494730009725814 18.0683499999999988   T   T   T
  8.9604571311959234 12.9428825228385644 18.0683499999999988   T   T   T
 10.9516698270172430 14.4362920447045529 18.0683499999999988   T   T   T
 12.9428825228385591 15.9297015665705430 18.0683499999999988   T   T   T
  2.4890158697766456  4.9780317395532938 18.0683499999999988   T   T   T
  4.4802285655979617  6.4714412614192822 18.0683499999999988   T   T   T
  6.4714412614192796  7.9648507832852715 18.0683499999999988   T   T   T
  8.4626539572405957  9.4582603051512582 18.0683499999999988   T   T   T
 10.4538666530619153 10.9516698270172501 18.0683499999999988   T   T   T
 12.4450793488832296 12.4450793488832367 18.0683499999999988   T   T   T
 14.4362920447045475 13.9384888707492234 18.0683499999999988   T   T   T
 16.4275047405258618 15.4318983926152136 18.0683499999999988   T   T   T
  0.0000000000000000  0.0000000000000000 18.0683499999999988   T   T   T
  1.9912126958213170  1.4934095218659886 18.0683499999999988   T   T   T
  3.9824253916426340  2.9868190437319773 18.0683499999999988   T   T   T
  5.9736380874639510  4.4802285655979652 18.0683499999999988   T   T   T
  7.9648507832852680  5.9736380874639545 18.0683499999999988   T   T   T
  9.9560634791065858  7.4670476093299438 18.0683499999999988   T   T   T
 11.9472761749279019  8.9604571311959305 18.0683499999999988   T   T   T
 13.9384888707492198 10.4538666530619153 18.0683499999999988   T   T   T
 15.9297015665705359 11.9472761749279091 18.0683499999999988   T   T   T
  5.4758349135086224  0.9956063479106582 18.0683499999999988   T   T   T
  7.4670476093299385  2.4890158697766465 18.0683499999999988   T   T   T
  9.4582603051512528  3.9824253916426358 18.0683499999999988   T   T   T
 11.4494730009725743  5.4758349135086251 18.0683499999999988   T   T   T
 13.4406856967938921  6.9692444353746099 18.0683499999999988   T   T   T
  8.9604571311959251  0.4978031739553287 18.0683499999999988   T   T   T
 10.9516698270172448  1.9912126958213163 18.0683499999999988   T   T   T
 12.9428825228385644  3.4846222176873041 18.0683499999999988   T   T   T
  7.2181460223522746 13.1917841098162345 19.8283499999999968   T   T   T
  9.2093587181735899 14.6851936316822194 19.8283499999999968   T   T   T
 11.2005714139949077 16.1786031535482095 19.8283499999999968   T   T   T
  4.7291301525756282  8.2137523702629363 19.8283499999999968   T   T   T
  6.7203428483969434  9.7071618921289247 19.8283499999999968   T   T   T
  8.7115555442182604 11.2005714139949131 19.8283499999999968   T   T   T
 10.7027682400395783 12.6939809358608997 19.8283499999999968   T   T   T
 12.6939809358608926 14.1873904577268881 19.8283499999999968   T   T   T
 14.6851936316822140 15.6807999795928765 19.8283499999999968   T   T   T
  4.2313269786202987  4.7291301525756291 19.8283499999999968   T   T   T
  6.2225396744416148  6.2225396744416184 19.8283499999999968   T   T   T
  8.2137523702629309  7.7159491963076068 19.8283499999999968   T   T   T
 10.2049650660842506  9.2093587181735952 19.8283499999999968   T   T   T
 12.1961777619055649 10.7027682400395818 19.8283499999999968   T   T   T
 14.1873904577268846 12.1961777619055702 19.8283499999999968   T   T   T
 16.1786031535481953 13.6895872837715604 19.8283499999999968   T   T   T
  5.7247365004862818 15.1829968056375488 19.8283499999999968   T   T   T
  7.7159491963076006 16.6764063275035390 19.8283499999999968   T   T   T
  3.7335238046649692  1.2445079348883237 19.8283499999999968   T   T   T
  5.7247365004862871  2.7379174567543125 19.8283499999999968   T   T   T
  7.7159491963076032  4.2313269786203005 19.8283499999999968   T   T   T
  9.7071618921289211  5.7247365004862898 19.8283499999999968   T   T   T
 11.6983745879502372  7.2181460223522764 19.8283499999999968   T   T   T
 13.6895872837715551  8.7115555442182622 19.8283499999999968   T   T   T
 15.6807999795928694 10.2049650660842524 19.8283499999999968   T   T   T
  5.2269333265309506 11.6983745879502408 19.8283499999999968   T   T   T
  7.2181460223522746  0.7467047609329935 19.8283499999999968   T   T   T
  9.2093587181735916  2.2401142827989817 19.8283499999999968   T   T   T
 11.2005714139949042  3.7335238046649706 19.8283499999999968   T   T   T
 13.1917841098162256  5.2269333265309585 19.8283499999999968   T   T   T
  2.7379174567543076  6.7203428483969461 19.8283499999999968   T   T   T
 10.7027682400395783  0.2489015869776637 19.8283499999999968   T   T   T
 12.6939809358608962  1.7423111088436518 19.8283499999999968   T   T   T
  2.2401142827989795  3.2357206307096402 19.8283499999999968   T   T   T
  5.4758349135086197 13.4406856967938957 14.5483499999999939   T   T   T
  7.4670476093299385 14.9340952186598876 14.5483499999999939   T   T   T
  9.4582603051512564 16.4275047405258725 14.5483499999999939   T   T   T
  2.9868190437319746  8.4626539572405992 14.5483499999999921   T   T   T
  4.9780317395532911  9.9560634791065876 14.5483499999999921   T   T   T
  6.9692444353746090 11.4494730009725814 14.5483499999999939   T   T   T
  8.9604571311959234 12.9428825228385644 14.5483499999999939   T   T   T
 10.9516698270172430 14.4362920447045529 14.5483499999999939   T   T   T
 12.9428825228385591 15.9297015665705430 14.5483499999999939   T   T   T
  2.4890158697766456  4.9780317395532938 14.5483499999999921   T   T   T
  4.4802285655979617  6.4714412614192822 14.5483499999999921   T   T   T
  6.4714412614192796  7.9648507832852715 14.5483499999999921   T   T   T
  8.4626539572405957  9.4582603051512582 14.5483499999999939   T   T   T
 10.4538666530619153 10.9516698270172501 14.5483499999999939   T   T   T
 12.4450793488832296 12.4450793488832367 14.5483499999999939   T   T   T
 14.4362920447045475 13.9384888707492234 14.5483499999999939   T   T   T
 16.4275047405258618 15.4318983926152136 14.5483499999999939   T   T   T
  0.0000000000000000  0.0000000000000000 14.5483499999999921   T   T   T
  1.9912126958213170  1.4934095218659886 14.5483499999999921   T   T   T
  3.9824253916426340  2.9868190437319773 14.5483499999999921   T   T   T
  5.9736380874639510  4.4802285655979652 14.5483499999999921   T   T   T
  7.9648507832852680  5.9736380874639545 14.5483499999999921   T   T   T
  9.9560634791065858  7.4670476093299438 14.5483499999999939   T   T   T
 11.9472761749279019  8.9604571311959305 14.5483499999999939   T   T   T
 13.9384888707492198 10.4538666530619153 14.5483499999999939   T   T   T
 15.9297015665705359 11.9472761749279091 14.5483499999999939   T   T   T
  5.4758349135086224  0.9956063479106582 14.5483499999999921   T   T   T
  7.4670476093299385  2.4890158697766465 14.5483499999999921   T   T   T
  9.4582603051512528  3.9824253916426358 14.5483499999999921   T   T   T
 11.4494730009725743  5.4758349135086251 14.5483499999999939   T   T   T
 13.4406856967938921  6.9692444353746099 14.5483499999999939   T   T   T
  8.9604571311959251  0.4978031739553287 14.5483499999999921   T   T   T
 10.9516698270172448  1.9912126958213163 14.5483499999999921   T   T   T
 12.9428825228385644  3.4846222176873041 14.5483499999999939   T   T   T
  7.2181460223522746 13.1917841098162345 16.3083499999999972   T   T   T
  9.2093587181735899 14.6851936316822194 16.3083499999999972   T   T   T
 11.2005714139949077 16.1786031535482095 16.3083499999999972   T   T   T
  4.7291301525756282  8.2137523702629363 16.3083499999999972   T   T   T
  6.7203428483969434  9.7071618921289247 16.3083499999999972   T   T   T
  8.7115555442182604 11.2005714139949131 16.3083499999999972   T   T   T
 10.7027682400395783 12.6939809358608997 16.3083499999999972   T   T   T
 12.6939809358608926 14.1873904577268881 16.3083499999999972   T   T   T
 14.6851936316822140 15.6807999795928765 16.3083499999999972   T   T   T
  4.2313269786202987  4.7291301525756291 16.3083499999999972   T   T   T
  6.2225396744416148  6.2225396744416184 16.3083499999999972   T   T   T
  8.2137523702629309  7.7159491963076068 16.3083499999999972   T   T   T
 10.2049650660842506  9.2093587181735952 16.3083499999999972   T   T   T
 12.1961777619055649 10.7027682400395818 16.3083499999999972   T   T   T
 14.1873904577268846 12.1961777619055702 16.3083499999999972   T   T   T
 16.1786031535481953 13.6895872837715604 16.3083499999999972   T   T   T
  5.7247365004862818 15.1829968056375488 16.3083499999999972   T   T   T
  7.7159491963076006 16.6764063275035390 16.3083499999999972   T   T   T
  3.7335238046649692  1.2445079348883237 16.3083499999999972   T   T   T
  5.7247365004862871  2.7379174567543125 16.3083499999999972   T   T   T
  7.7159491963076032  4.2313269786203005 16.3083499999999972   T   T   T
  9.7071618921289211  5.7247365004862898 16.3083499999999972   T   T   T
 11.6983745879502372  7.2181460223522764 16.3083499999999972   T   T   T
 13.6895872837715551  8.7115555442182622 16.3083499999999972   T   T   T
 15.6807999795928694 10.2049650660842524 16.3083499999999972   T   T   T
  5.2269333265309506 11.6983745879502408 16.3083499999999972   T   T   T
  7.2181460223522746  0.7467047609329935 16.3083499999999972   T   T   T
  9.2093587181735916  2.2401142827989817 16.3083499999999972   T   T   T
 11.2005714139949042  3.7335238046649706 16.3083499999999972   T   T   T
 13.1917841098162256  5.2269333265309585 16.3083499999999972   T   T   T
  2.7379174567543076  6.7203428483969461 16.3083499999999972   T   T   T
 10.7027682400395783  0.2489015869776637 16.3083499999999972   T   T   T
 12.6939809358608962  1.7423111088436518 16.3083499999999972   T   T   T
  2.2401142827989795  3.2357206307096402 16.3083499999999972   T   T   T
  5.4758349135086197 13.4406856967938957 11.0283499999999943   F   F   F
  7.4670476093299385 14.9340952186598876 11.0283499999999943   F   F   F
  9.4582603051512564 16.4275047405258725 11.0283499999999943   F   F   F
  2.9868190437319746  8.4626539572405992 11.0283499999999925   F   F   F
  4.9780317395532911  9.9560634791065876 11.0283499999999925   F   F   F
  6.9692444353746090 11.4494730009725814 11.0283499999999943   F   F   F
  8.9604571311959234 12.9428825228385644 11.0283499999999943   F   F   F
 10.9516698270172430 14.4362920447045529 11.0283499999999943   F   F   F
 12.9428825228385591 15.9297015665705430 11.0283499999999943   F   F   F
  2.4890158697766456  4.9780317395532938 11.0283499999999925   F   F   F
  4.4802285655979617  6.4714412614192822 11.0283499999999925   F   F   F
  6.4714412614192796  7.9648507832852715 11.0283499999999925   F   F   F
  8.4626539572405957  9.4582603051512582 11.0283499999999943   F   F   F
 10.4538666530619153 10.9516698270172501 11.0283499999999943   F   F   F
 12.4450793488832296 12.4450793488832367 11.0283499999999943   F   F   F
 14.4362920447045475 13.9384888707492234 11.0283499999999943   F   F   F
 16.4275047405258618 15.4318983926152136 11.0283499999999943   F   F   F
  0.0000000000000000  0.0000000000000000 11.0283499999999925   F   F   F
  1.9912126958213170  1.4934095218659886 11.0283499999999925   F   F   F
  3.9824253916426340  2.9868190437319773 11.0283499999999925   F   F   F
  5.9736380874639510  4.4802285655979652 11.0283499999999925   F   F   F
  7.9648507832852680  5.9736380874639545 11.0283499999999925   F   F   F
  9.9560634791065858  7.4670476093299438 11.0283499999999943   F   F   F
 11.9472761749279019  8.9604571311959305 11.0283499999999943   F   F   F
 13.9384888707492198 10.4538666530619153 11.0283499999999943   F   F   F
 15.9297015665705359 11.9472761749279091 11.0283499999999943   F   F   F
  5.4758349135086224  0.9956063479106582 11.0283499999999925   F   F   F
  7.4670476093299385  2.4890158697766465 11.0283499999999925   F   F   F
  9.4582603051512528  3.9824253916426358 11.0283499999999925   F   F   F
 11.4494730009725743  5.4758349135086251 11.0283499999999943   F   F   F
 13.4406856967938921  6.9692444353746099 11.0283499999999943   F   F   F
  8.9604571311959251  0.4978031739553287 11.0283499999999925   F   F   F
 10.9516698270172448  1.9912126958213163 11.0283499999999925   F   F   F
 12.9428825228385644  3.4846222176873041 11.0283499999999943   F   F   F
  7.2181460223522746 13.1917841098162345 12.7883499999999994   F   F   F
  9.2093587181735899 14.6851936316822194 12.7883499999999994   F   F   F
 11.2005714139949077 16.1786031535482095 12.7883499999999994   F   F   F
  4.7291301525756282  8.2137523702629363 12.7883499999999977   F   F   F
  6.7203428483969434  9.7071618921289247 12.7883499999999977   F   F   F
  8.7115555442182604 11.2005714139949131 12.7883499999999994   F   F   F
 10.7027682400395783 12.6939809358608997 12.7883499999999994   F   F   F
 12.6939809358608926 14.1873904577268881 12.7883499999999994   F   F   F
 14.6851936316822140 15.6807999795928765 12.7883499999999994   F   F   F
  4.2313269786202987  4.7291301525756291 12.7883499999999977   F   F   F
  6.2225396744416148  6.2225396744416184 12.7883499999999977   F   F   F
  8.2137523702629309  7.7159491963076068 12.7883499999999977   F   F   F
 10.2049650660842506  9.2093587181735952 12.7883499999999994   F   F   F
 12.1961777619055649 10.7027682400395818 12.7883499999999994   F   F   F
 14.1873904577268846 12.1961777619055702 12.7883499999999994   F   F   F
 16.1786031535481953 13.6895872837715604 12.7883499999999994   F   F   F
  5.7247365004862818 15.1829968056375488 12.7883499999999994   F   F   F
  7.7159491963076006 16.6764063275035390 12.7883499999999994   F   F   F
  3.7335238046649692  1.2445079348883237 12.7883499999999977   F   F   F
  5.7247365004862871  2.7379174567543125 12.7883499999999977   F   F   F
  7.7159491963076032  4.2313269786203005 12.7883499999999977   F   F   F
  9.7071618921289211  5.7247365004862898 12.7883499999999977   F   F   F
 11.6983745879502372  7.2181460223522764 12.7883499999999994   F   F   F
 13.6895872837715551  8.7115555442182622 12.7883499999999994   F   F   F
 15.6807999795928694 10.2049650660842524 12.7883499999999994   F   F   F
  5.2269333265309506 11.6983745879502408 12.7883499999999977   F   F   F
  7.2181460223522746  0.7467047609329935 12.7883499999999977   F   F   F
  9.2093587181735916  2.2401142827989817 12.7883499999999977   F   F   F
 11.2005714139949042  3.7335238046649706 12.7883499999999977   F   F   F
 13.1917841098162256  5.2269333265309585 12.7883499999999994   F   F   F
  2.7379174567543076  6.7203428483969461 12.7883499999999977   F   F   F
 10.7027682400395783  0.2489015869776637 12.7883499999999977   F   F   F
 12.6939809358608962  1.7423111088436518 12.7883499999999977   F   F   F
  2.2401142827989795  3.2357206307096402 12.7883499999999977   F   F   F
  5.4758349135086197 13.4406856967938957  7.5083499999999965   F   F   F
  7.4670476093299385 14.9340952186598876  7.5083499999999965   F   F   F
  9.4582603051512564 16.4275047405258725  7.5083499999999965   F   F   F
  2.9868190437319746  8.4626539572405992  7.5083499999999965   F   F   F
  4.9780317395532911  9.9560634791065876  7.5083499999999965   F   F   F
  6.9692444353746090 11.4494730009725814  7.5083499999999965   F   F   F
  8.9604571311959234 12.9428825228385644  7.5083499999999965   F   F   F
 10.9516698270172430 14.4362920447045529  7.5083499999999965   F   F   F
 12.9428825228385591 15.9297015665705430  7.5083499999999974   F   F   F
  2.4890158697766456  4.9780317395532938  7.5083499999999956   F   F   F
  4.4802285655979617  6.4714412614192822  7.5083499999999965   F   F   F
  6.4714412614192796  7.9648507832852715  7.5083499999999965   F   F   F
  8.4626539572405957  9.4582603051512582  7.5083499999999965   F   F   F
 10.4538666530619153 10.9516698270172501  7.5083499999999965   F   F   F
 12.4450793488832296 12.4450793488832367  7.5083499999999965   F   F   F
 14.4362920447045475 13.9384888707492234  7.5083499999999974   F   F   F
 16.4275047405258618 15.4318983926152136  7.5083499999999974   F   F   F
  0.0000000000000000  0.0000000000000000  7.5083499999999956   F   F   F
  1.9912126958213170  1.4934095218659886  7.5083499999999956   F   F   F
  3.9824253916426340  2.9868190437319773  7.5083499999999956   F   F   F
  5.9736380874639510  4.4802285655979652  7.5083499999999965   F   F   F
  7.9648507832852680  5.9736380874639545  7.5083499999999965   F   F   F
  9.9560634791065858  7.4670476093299438  7.5083499999999965   F   F   F
 11.9472761749279019  8.9604571311959305  7.5083499999999965   F   F   F
 13.9384888707492198 10.4538666530619153  7.5083499999999965   F   F   F
 15.9297015665705359 11.9472761749279091  7.5083499999999974   F   F   F
  5.4758349135086224  0.9956063479106582  7.5083499999999956   F   F   F
  7.4670476093299385  2.4890158697766465  7.5083499999999965   F   F   F
  9.4582603051512528  3.9824253916426358  7.5083499999999965   F   F   F
 11.4494730009725743  5.4758349135086251  7.5083499999999965   F   F   F
 13.4406856967938921  6.9692444353746099  7.5083499999999965   F   F   F
  8.9604571311959251  0.4978031739553287  7.5083499999999965   F   F   F
 10.9516698270172448  1.9912126958213163  7.5083499999999965   F   F   F
 12.9428825228385644  3.4846222176873041  7.5083499999999965   F   F   F
  7.2181460223522746 13.1917841098162345  9.2683499999999945   F   F   F
  9.2093587181735899 14.6851936316822194  9.2683499999999945   F   F   F
 11.2005714139949077 16.1786031535482095  9.2683499999999945   F   F   F
  4.7291301525756282  8.2137523702629363  9.2683499999999928   F   F   F
  6.7203428483969434  9.7071618921289247  9.2683499999999928   F   F   F
  8.7115555442182604 11.2005714139949131  9.2683499999999945   F   F   F
 10.7027682400395783 12.6939809358608997  9.2683499999999945   F   F   F
 12.6939809358608926 14.1873904577268881  9.2683499999999945   F   F   F
 14.6851936316822140 15.6807999795928765  9.2683499999999945   F   F   F
  4.2313269786202987  4.7291301525756291  9.2683499999999928   F   F   F
  6.2225396744416148  6.2225396744416184  9.2683499999999928   F   F   F
  8.2137523702629309  7.7159491963076068  9.2683499999999928   F   F   F
 10.2049650660842506  9.2093587181735952  9.2683499999999945   F   F   F
 12.1961777619055649 10.7027682400395818  9.2683499999999945   F   F   F
 14.1873904577268846 12.1961777619055702  9.2683499999999945   F   F   F
 16.1786031535481953 13.6895872837715604  9.2683499999999945   F   F   F
  5.7247365004862818 15.1829968056375488  9.2683499999999945   F   F   F
  7.7159491963076006 16.6764063275035390  9.2683499999999945   F   F   F
  3.7335238046649692  1.2445079348883237  9.2683499999999928   F   F   F
  5.7247365004862871  2.7379174567543125  9.2683499999999928   F   F   F
  7.7159491963076032  4.2313269786203005  9.2683499999999928   F   F   F
  9.7071618921289211  5.7247365004862898  9.2683499999999928   F   F   F
 11.6983745879502372  7.2181460223522764  9.2683499999999945   F   F   F
 13.6895872837715551  8.7115555442182622  9.2683499999999945   F   F   F
 15.6807999795928694 10.2049650660842524  9.2683499999999945   F   F   F
  5.2269333265309506 11.6983745879502408  9.2683499999999928   F   F   F
  7.2181460223522746  0.7467047609329935  9.2683499999999928   F   F   F
  9.2093587181735916  2.2401142827989817  9.2683499999999928   F   F   F
 11.2005714139949042  3.7335238046649706  9.2683499999999928   F   F   F
 13.1917841098162256  5.2269333265309585  9.2683499999999945   F   F   F
  2.7379174567543076  6.7203428483969461  9.2683499999999928   F   F   F
 10.7027682400395783  0.2489015869776637  9.2683499999999928   F   F   F
 12.6939809358608962  1.7423111088436518  9.2683499999999928   F   F   F
  2.2401142827989795  3.2357206307096402  9.2683499999999928   F   F   F
 12.3460165172661220  6.7362725499635205 26.6858499999999985   T   T   T
  3.0122070056036967  6.7362725499635188 26.6858499999999985   T   T   T
  6.1234768428245054  6.7362725499635188 26.6858499999999985   T   T   T
  9.2347466800453137  6.7362725499635188 26.6858499999999985   T   T   T
  1.5187974837377101  2.5049455713432192 26.6858499999999985   T   T   T
  4.6300673209585188  2.5049455713432192 26.6858499999999985   T   T   T
  7.7413371581793271  2.5049455713432192 26.6858499999999985   T   T   T
 10.8526069954001336  2.5049455713432192 26.6858499999999985   T   T   T
 12.3574659902670962  5.9577083858973836 25.1333499999999965   T   T   T
  3.0236564786046705  5.9577083858973827 25.1333499999999965   T   T   T
  6.1349263158254805  5.9577083858973827 25.1333499999999965   T   T   T
  9.2461961530462862  5.9577083858973827 25.1333499999999965   T   T   T
 12.4196913870115146  1.7263814072770847 26.6858499999999985   T   T   T
  3.0858818753490880  1.7263814072770847 26.6858499999999985   T   T   T
  6.1971517125698954  1.7263814072770847 26.6858499999999985   T   T   T
  9.3084215497907046  1.7263814072770847 26.6858499999999985   T   T   T
 13.7772006423876920 15.1989265072041224 25.1333499999999965   T   T   T
 16.8884704796085039 15.1989265072041206 25.1333499999999965   T   T   T
  7.5546609679460763 15.1989265072041224 25.1333499999999965   T   T   T
 10.6659308051668837 15.1989265072041206 25.1333499999999965   T   T   T
 13.8508755121330829 10.1890353645176912 25.1333499999999965   T   T   T
  4.5170660004706571 10.1890353645176912 25.1333499999999965   T   T   T
  7.6283358376914663 10.1890353645176912 25.1333499999999965   T   T   T
 10.7396056749122728 10.1890353645176912 25.1333499999999965   T   T   T
 13.7886501153886698 14.4203623431379935 26.6858499999999985   T   T   T
 16.8999199526094763 14.4203623431379917 26.6858499999999985   T   T   T
  7.5661104409470497 14.4203623431379935 26.6858499999999985   T   T   T
 10.6773802781678562 14.4203623431379917 26.6858499999999985   T   T   T
 12.2837911205217054 10.9675995285838219 25.1333499999999965   T   T   T
 15.3950609577425119 10.9675995285838201 25.1333499999999965   T   T   T
  6.0612514460800906 10.9675995285838219 25.1333499999999965   T   T   T
  9.1725212833008953 10.9675995285838201 25.1333499999999965   T   T   T
 12.3460165172661220  6.7362725499635214 23.5808500000000016   T   T   T
  3.0122070056036980  6.7362725499635214 23.5808500000000016   T   T   T
  6.1234768428245054  6.7362725499635214 23.5808500000000016   T   T   T
  9.2347466800453137  6.7362725499635214 23.5808500000000016   T   T   T
  1.5187974837377110  2.5049455713432192 23.5808500000000016   T   T   T
  4.6300673209585188  2.5049455713432187 23.5808500000000016   T   T   T
  7.7413371581793271  2.5049455713432192 23.5808500000000016   T   T   T
 10.8526069954001336  2.5049455713432187 23.5808500000000016   T   T   T
 12.3574659902670998  5.9577083858973854 22.0283499999999961   T   T   T
  3.0236564786046705  5.9577083858973854 22.0283499999999961   T   T   T
  6.1349263158254779  5.9577083858973854 22.0283499999999961   T   T   T
  9.2461961530462862  5.9577083858973854 22.0283499999999961   T   T   T
 12.4196913870115146  1.7263814072770849 23.5808500000000016   T   T   T
  3.0858818753490875  1.7263814072770849 23.5808500000000016   T   T   T
  6.1971517125698963  1.7263814072770849 23.5808500000000016   T   T   T
  9.3084215497907046  1.7263814072770849 23.5808500000000016   T   T   T
 13.7772006423876974 15.1989265072041224 22.0283499999999961   T   T   T
 16.8884704796085039 15.1989265072041206 22.0283499999999961   T   T   T
  7.5546609679460763 15.1989265072041206 22.0283499999999961   T   T   T
 10.6659308051668837 15.1989265072041206 22.0283499999999961   T   T   T
 13.8508755121330864 10.1890353645176912 22.0283499999999961   T   T   T
  4.5170660004706571 10.1890353645176912 22.0283499999999961   T   T   T
  7.6283358376914663 10.1890353645176912 22.0283499999999961   T   T   T
 10.7396056749122728 10.1890353645176912 22.0283499999999961   T   T   T
 13.7886501153886698 14.4203623431379935 23.5808500000000016   T   T   T
 16.8999199526094763 14.4203623431379917 23.5808500000000016   T   T   T
  7.5661104409470488 14.4203623431379917 23.5808500000000016   T   T   T
 10.6773802781678562 14.4203623431379917 23.5808500000000016   T   T   T
 12.2837911205217054 10.9675995285838219 22.0283499999999961   T   T   T
 15.3950609577425155 10.9675995285838201 22.0283499999999961   T   T   T
  6.0612514460800888 10.9675995285838201 22.0283499999999961   T   T   T
  9.1725212833008953 10.9675995285838201 22.0283499999999961   T   T   T
 12.3074367712845856  9.3596952767081092 26.6858499999999985   T   T   T
 15.4187066085053939  9.3596952767081074 26.6858499999999985   T   T   T
  6.0848970968429690  9.3596952767081092 26.6858499999999985   T   T   T
  9.1961669340637755  9.3596952767081092 26.6858499999999985   T   T   T
 13.9252970866394072  5.1283682980878060 26.6858499999999985   T   T   T
  4.5914875749769788  5.1283682980878051 26.6858499999999985   T   T   T
  7.7027574121977889  5.1283682980878043 26.6858499999999985   T   T   T
 10.8140272494185989  5.1283682980878060 26.6858499999999985   T   T   T
 12.3960457362486363  3.3342856591527990 25.1333499999999965   T   T   T
  3.0622362245862100  3.3342856591527990 25.1333499999999965   T   T   T
  6.1735060618070188  3.3342856591527990 25.1333499999999965   T   T   T
  9.2847758990278280  3.3342856591527990 25.1333499999999965   T   T   T
 12.2093695460153846 16.0282665950137044 26.6858499999999985   T   T   T
 15.3206393832361911 16.0282665950137009 26.6858499999999985   T   T   T
  5.9868298715737671 16.0282665950137044 26.6858499999999985   T   T   T
  9.0980997087945745 16.0282665950137044 26.6858499999999985   T   T   T
  1.5424431345005889  0.8970413194675044 25.1333499999999965   T   T   T
  4.6537129717213972  0.8970413194675044 25.1333499999999965   T   T   T
  7.7649828089422055  0.8970413194675043 25.1333499999999965   T   T   T
 10.8762526461630120  0.8970413194675044 25.1333499999999965   T   T   T
 13.8894552581146193  7.5656126377730981 25.1333499999999965   T   T   T
  4.5556457464521962  7.5656126377730990 25.1333499999999965   T   T   T
  7.6669155836730045  7.5656126377730981 25.1333499999999965   T   T   T
 10.7781854208938128  7.5656126377730990 25.1333499999999965   T   T   T
 13.8272298613702027 11.7969396163933986 26.6858499999999985   T   T   T
  4.4934203497077778 11.7969396163933986 26.6858499999999985   T   T   T
  7.6046901869285879 11.7969396163933986 26.6858499999999985   T   T   T
 10.7159600241493962 11.7969396163933968 26.6858499999999985   T   T   T
 12.2452113745401672 13.5910222553284132 25.1333499999999965   T   T   T
 15.3564812117609719 13.5910222553284115 25.1333499999999965   T   T   T
  6.0226717000985506 13.5910222553284132 25.1333499999999965   T   T   T
  9.1339415373193589 13.5910222553284132 25.1333499999999965   T   T   T
 12.3074367712845856  9.3596952767081092 23.5808500000000016   T   T   T
 15.4187066085053939  9.3596952767081074 23.5808500000000016   T   T   T
  6.0848970968429690  9.3596952767081092 23.5808500000000016   T   T   T
  9.1961669340637755  9.3596952767081092 23.5808500000000016   T   T   T
 13.9252970866394072  5.1283682980878069 23.5808500000000016   T   T   T
  4.5914875749769797  5.1283682980878069 23.5808500000000016   T   T   T
  7.7027574121977880  5.1283682980878060 23.5808500000000016   T   T   T
 10.8140272494185989  5.1283682980878078 23.5808500000000016   T   T   T
 12.3960457362486398  3.3342856591527990 22.0283499999999961   T   T   T
  3.0622362245862100  3.3342856591527990 22.0283499999999961   T   T   T
  6.1735060618070188  3.3342856591527990 22.0283499999999961   T   T   T
  9.2847758990278280  3.3342856591527985 22.0283499999999961   T   T   T
 12.2093695460153846 16.0282665950137044 23.5808500000000016   T   T   T
 15.3206393832361911 16.0282665950137009 23.5808500000000016   T   T   T
  5.9868298715737671 16.0282665950137044 23.5808500000000016   T   T   T
  9.0980997087945727 16.0282665950137044 23.5808500000000016   T   T   T
  1.5424431345005898  0.8970413194675046 22.0283499999999961   T   T   T
  4.6537129717213972  0.8970413194675046 22.0283499999999961   T   T   T
  7.7649828089422055  0.8970413194675046 22.0283499999999961   T   T   T
 10.8762526461630120  0.8970413194675046 22.0283499999999961   T   T   T
 13.8894552581146229  7.5656126377730999 22.0283499999999961   T   T   T
  4.5556457464521953  7.5656126377730999 22.0283499999999961   T   T   T
  7.6669155836730045  7.5656126377730990 22.0283499999999961   T   T   T
 10.7781854208938146  7.5656126377731008 22.0283499999999961   T   T   T
 13.8272298613702063 11.7969396163933986 23.5808500000000016   T   T   T
  4.4934203497077787 11.7969396163933986 23.5808500000000016   T   T   T
  7.6046901869285879 11.7969396163933968 23.5808500000000016   T   T   T
 10.7159600241493962 11.7969396163933968 23.5808500000000016   T   T   T
 12.2452113745401672 13.5910222553284132 22.0283499999999961   T   T   T
 15.3564812117609755 13.5910222553284115 22.0283499999999961   T   T   T
  6.0226717000985497 13.5910222553284132 22.0283499999999961   T   T   T
  9.1339415373193589 13.5910222553284132 22.0283499999999961   T   T   T
