Mo B  Mo B  Mo B  Mo B 
 1.0000000000000000
     8.8139446061340774    0.0000000000000000    0.0000000000000005
     2.2034861515335207   16.9892000000000003    2.2034861515335171
     0.0000000000000000    0.0000000000000000   28.8139446061340792
 Mo  B   Mo  B   Mo  B   Mo  B  
  16  16  16  16  16  16  16  16
Selective dynamics
Cartesian
  3.3052292273002797  7.5941724000000015 13.3052292273002806   F   F   F
  1.1017430757667603  7.5941724000000015 11.1017430757667608   F   F   F
  2.2034861515335202 11.8414723999999989 14.4069723030670414   F   F   F
  4.4069723030670396 11.8414723999999989 12.2034861515335198   F   F   F
  2.2034861515335202 13.6423275999999998 12.2034861515335180   F   F   F
  4.4069723030670396 13.6423275999999998 14.4069723030670396   F   F   F
  3.3052292273002792  0.9004276000000008 13.3052292273002823   F   F   F
  1.1017430757667599  0.9004276000000008 11.1017430757667608   F   F   F
  5.5087153788337995 16.0887723999999999 13.3052292273002770   F   F   F
  3.3052292273002806 16.0887723999999999 15.5087153788337986   F   F   F
  5.5087153788337986  9.3950275999999988 13.3052292273002823   F   F   F
  3.3052292273002797  9.3950275999999988 15.5087153788337986   F   F   F
  2.2034861515335198  5.1477276000000005 14.4069723030670414   F   F   F
  4.4069723030670396  5.1477276000000005 12.2034861515335216   F   F   F
  2.2034861515335193  3.3468724000000010 12.2034861515335198   F   F   F
  4.4069723030670387  3.3468724000000010 14.4069723030670414   F   F   F
  3.3052292273002797 10.2274984000000000 13.3052292273002788   F   F   F
  5.5087153788337995 10.2274984000000000 15.5087153788338021   T   T   T
  2.2034861515335207 14.4747983999999992 14.4069723030670396   F   F   F
  4.4069723030670405 14.4747983999999992 12.2034861515335198   F   F   F
  2.2034861515335202 11.0090016000000013 12.2034861515335198   F   F   F
  4.4069723030670396 11.0090016000000013 14.4069723030670396   F   F   F
  3.3052292273002801 15.2563015999999987 13.3052292273002788   F   F   F
  5.5087153788338004 15.2563015999999987 15.5087153788337986   F   F   F
  1.1017430757667599  1.7328983999999996 13.3052292273002823   F   F   F
  3.3052292273002792  1.7328983999999996 11.1017430757667626   F   F   F
  1.1017430757667601  6.7617016000000003 13.3052292273002788   F   F   F
  3.3052292273002797  6.7617016000000003 11.1017430757667608   F   F   F
  2.2034861515335198  2.5144016000000002 14.4069723030670414   F   F   F
  4.4069723030670387  2.5144016000000002 12.2034861515335216   F   F   F
  2.2034861515335198  5.9801983999999981 12.2034861515335216   F   F   F
  4.4069723030670387  5.9801983999999981 14.4069723030670396   F   F   F
  3.3052292273002797  7.5941724000000015 17.7122015303673201   T   T   T
  1.1017430757667603  7.5941724000000015 15.5087153788337986   F   F   F
  2.2034861515335202 11.8414723999999989 18.8139446061340792   T   T   T
  4.4069723030670396 11.8414723999999989 16.6104584546005576   T   T   T
  2.2034861515335202 13.6423275999999998 16.6104584546005576   T   T   T
  4.4069723030670396 13.6423275999999998 18.8139446061340792   T   T   T
  3.3052292273002792  0.9004276000000008 17.7122015303673201   T   T   T
  1.1017430757667599  0.9004276000000008 15.5087153788338021   T   T   T
  5.5087153788337995 16.0887723999999999 17.7122015303673201   T   T   T
  3.3052292273002806 16.0887723999999999 19.9156876819008417   T   T   T
  5.5087153788337986  9.3950275999999988 17.7122015303673201   T   T   T
  3.3052292273002797  9.3950275999999988 19.9156876819008382   T   T   T
  2.2034861515335198  5.1477276000000005 18.8139446061340792   T   T   T
  4.4069723030670396  5.1477276000000005 16.6104584546005611   T   T   T
  2.2034861515335193  3.3468724000000010 16.6104584546005647   T   T   T
  4.4069723030670387  3.3468724000000010 18.8139446061340827   T   T   T
  3.3052292273002797 10.2274984000000000 17.7122015303673201   T   T   T
  5.5087153788337995 10.2274984000000000 19.9156876819008417   T   T   T
  2.2034861515335207 14.4747983999999992 18.8139446061340827   T   T   T
  4.4069723030670405 14.4747983999999992 16.6104584546005576   T   T   T
  2.2034861515335202 11.0090016000000013 16.6104584546005576   T   T   T
  4.4069723030670396 11.0090016000000013 18.8139446061340792   T   T   T
  3.3052292273002801 15.2563015999999987 17.7122015303673166   T   T   T
  5.5087153788338004 15.2563015999999987 19.9156876819008417   T   T   T
  1.1017430757667599  1.7328983999999996 17.7122015303673201   T   T   T
  3.3052292273002792  1.7328983999999996 15.5087153788338021   T   T   T
  1.1017430757667601  6.7617016000000003 17.7122015303673237   T   T   T
  3.3052292273002797  6.7617016000000003 15.5087153788338021   T   T   T
  2.2034861515335198  2.5144016000000002 18.8139446061340827   T   T   T
  4.4069723030670387  2.5144016000000002 16.6104584546005611   T   T   T
  2.2034861515335198  5.9801983999999981 16.6104584546005611   T   T   T
  4.4069723030670387  5.9801983999999981 18.8139446061340792   T   T   T
  7.7122015303673184  7.5941724000000015 13.3052292273002806   F   F   F
  5.5087153788337986  7.5941724000000015 11.1017430757667608   F   F   F
  6.6104584546005594 11.8414723999999989 14.4069723030670414   F   F   F
  8.8139446061340792 11.8414723999999989 12.2034861515335198   F   F   F
  6.6104584546005594 13.6423275999999998 12.2034861515335180   F   F   F
  8.8139446061340792 13.6423275999999998 14.4069723030670396   F   F   F
  7.7122015303673184  0.9004276000000008 13.3052292273002823   F   F   F
  5.5087153788337986  0.9004276000000008 11.1017430757667608   F   F   F
  9.9156876819008382 16.0887723999999999 13.3052292273002770   F   F   F
  7.7122015303673193 16.0887723999999999 15.5087153788337986   F   F   F
  9.9156876819008382  9.3950275999999988 13.3052292273002823   F   F   F
  7.7122015303673184  9.3950275999999988 15.5087153788337986   F   F   F
  6.6104584546005585  5.1477276000000005 14.4069723030670414   F   F   F
  8.8139446061340792  5.1477276000000005 12.2034861515335216   F   F   F
  6.6104584546005576  3.3468724000000010 12.2034861515335198   F   F   F
  8.8139446061340774  3.3468724000000010 14.4069723030670414   F   F   F
  7.7122015303673184 10.2274984000000000 13.3052292273002788   F   F   F
  9.9156876819008382 10.2274984000000000 15.5087153788338021   T   T   T
  6.6104584546005594 14.4747983999999992 14.4069723030670396   F   F   F
  8.8139446061340792 14.4747983999999992 12.2034861515335198   F   F   F
  6.6104584546005594 11.0090016000000013 12.2034861515335198   F   F   F
  8.8139446061340792 11.0090016000000013 14.4069723030670396   F   F   F
  7.7122015303673184 15.2563015999999987 13.3052292273002788   F   F   F
  9.9156876819008382 15.2563015999999987 15.5087153788337986   F   F   F
  5.5087153788337986  1.7328983999999996 13.3052292273002823   F   F   F
  7.7122015303673184  1.7328983999999996 11.1017430757667626   F   F   F
  5.5087153788337986  6.7617016000000003 13.3052292273002788   F   F   F
  7.7122015303673184  6.7617016000000003 11.1017430757667608   F   F   F
  6.6104584546005585  2.5144016000000002 14.4069723030670414   F   F   F
  8.8139446061340774  2.5144016000000002 12.2034861515335216   F   F   F
  6.6104584546005585  5.9801983999999981 12.2034861515335216   F   F   F
  8.8139446061340774  5.9801983999999981 14.4069723030670396   F   F   F
  7.7122015303673184  7.5941724000000015 17.7122015303673201   T   T   T
  5.5087153788337986  7.5941724000000015 15.5087153788337986   F   F   F
  6.6104584546005594 11.8414723999999989 18.8139446061340792   T   T   T
  8.8139446061340792 11.8414723999999989 16.6104584546005576   T   T   T
  6.6104584546005594 13.6423275999999998 16.6104584546005576   T   T   T
  8.8139446061340792 13.6423275999999998 18.8139446061340792   T   T   T
  7.7122015303673184  0.9004276000000008 17.7122015303673201   T   T   T
  5.5087153788337986  0.9004276000000008 15.5087153788338021   T   T   T
  9.9156876819008382 16.0887723999999999 17.7122015303673201   T   T   T
  7.7122015303673193 16.0887723999999999 19.9156876819008417   T   T   T
  9.9156876819008382  9.3950275999999988 17.7122015303673201   T   T   T
  7.7122015303673184  9.3950275999999988 19.9156876819008382   T   T   T
  6.6104584546005585  5.1477276000000005 18.8139446061340792   T   T   T
  8.8139446061340792  5.1477276000000005 16.6104584546005611   T   T   T
  6.6104584546005576  3.3468724000000010 16.6104584546005647   T   T   T
  8.8139446061340774  3.3468724000000010 18.8139446061340827   T   T   T
  7.7122015303673184 10.2274984000000000 17.7122015303673201   T   T   T
  9.9156876819008382 10.2274984000000000 19.9156876819008417   T   T   T
  6.6104584546005594 14.4747983999999992 18.8139446061340827   T   T   T
  8.8139446061340792 14.4747983999999992 16.6104584546005576   T   T   T
  6.6104584546005594 11.0090016000000013 16.6104584546005576   T   T   T
  8.8139446061340792 11.0090016000000013 18.8139446061340792   T   T   T
  7.7122015303673184 15.2563015999999987 17.7122015303673166   T   T   T
  9.9156876819008382 15.2563015999999987 19.9156876819008417   T   T   T
  5.5087153788337986  1.7328983999999996 17.7122015303673201   T   T   T
  7.7122015303673184  1.7328983999999996 15.5087153788338021   T   T   T
  5.5087153788337986  6.7617016000000003 17.7122015303673237   T   T   T
  7.7122015303673184  6.7617016000000003 15.5087153788338021   T   T   T
  6.6104584546005585  2.5144016000000002 18.8139446061340827   T   T   T
  8.8139446061340774  2.5144016000000002 16.6104584546005611   T   T   T
  6.6104584546005585  5.9801983999999981 16.6104584546005611   T   T   T
  8.8139446061340774  5.9801983999999981 18.8139446061340792   T   T   T
