Mo B  Mo B  Mo B  Mo B  Mo B  Mo B  Mo B  Mo B  Mo B  Mo B  Mo B  Mo B  Mo B  Mo B  Mo B  Mo B  Mo B  Mo B  Mo B  Mo B  Mo B  Mo B  Mo B  Mo B  Mo B  Mo B  Mo B  Mo B  Mo B  Mo B  Mo B  Mo B  Mo B  Mo B  Mo B  Mo B  Mo B  Mo B  Mo B  Mo B  Mo B  Mo B  Mo B  Mo B  Mo B  Mo B  Mo B  Mo B  Mo B  Mo B  Mo B  Mo B  Mo B  Mo B  Mo B  Mo B  Mo B  Mo B  Mo B  Mo B  Mo B  Mo B  Mo B  Mo B 
 1.0000000000000000
    12.4199999999999999    0.0000000000000000    0.0000000000000000
     0.0000000000000042   67.8799999999999955    0.0000000000000000
     0.0000000000000000    0.0000000000000000   30.8674999999999997
 Mo  B   Mo  B   Mo  B   Mo  B   Mo  B   Mo  B   Mo  B   Mo  B   Mo  B   Mo  B   Mo  B   Mo  B   Mo  B   Mo  B   Mo  B   Mo  B   Mo  B   Mo  B   Mo  B   Mo  B   Mo  B   Mo  B   Mo  B   Mo  B   Mo  B   Mo  B   Mo  B   Mo  B   Mo  B   Mo  B   Mo  B   Mo  B   Mo  B   Mo  B   Mo  B   Mo  B   Mo  B   Mo  B   Mo  B   Mo  B   Mo  B   Mo  B   Mo  B   Mo  B   Mo  B   Mo  B   Mo  B   Mo  B   Mo  B   Mo  B   Mo  B   Mo  B   Mo  B   Mo  B   Mo  B   Mo  B   Mo  B   Mo  B   Mo  B   Mo  B   Mo  B   Mo  B   Mo  B   Mo  B  
   8   8   8   8   8   8   8   8   8   8   8   8   8   8   8   8   8   8   8   8   8   8   8   8   8   8   8   8   8   8   8   8   8   8   8   8   8   8   8   8   8   8   8   8   8   8   8   8   8   8   8   8   8   8   8   8   8   8   8   8   8   8   8   8   8   8   8   8   8   8   8   8   8   8   8   8   8   8   8   8   8   8   8   8   8   8   8   8   8   8   8   8   8   8   8   8   8   8   8   8   8   8   8   8   8   8   8   8   8   8   8   8   8   8   8   8   8   8   8   8   8   8   8   8   8   8   8   8
Selective dynamics
Cartesian
  0.0000000000000008  9.3844100000000008 11.5525000000000002   F   F   F
  1.5525000000000002  5.1419100000000002 11.5525000000000002   F   F   F
  0.0000000000000002  3.3430900000000010 10.0000000000000000   F   F   F
  0.0000000000000012 16.0705899999999993 11.5525000000000002   F   F   F
  1.5525000000000000  0.8994099999999998 10.0000000000000000   F   F   F
  1.5525000000000004  7.5855899999999998 10.0000000000000000   F   F   F
  1.5525000000000007 11.8280899999999978 11.5525000000000002   F   F   F
  0.0000000000000008 13.6269100000000005 10.0000000000000000   F   F   F
  0.0000000000000007  6.7540600000000000 11.5525000000000002   F   F   F
  1.5525000000000002  2.5115600000000002 11.5525000000000002   F   F   F
  0.0000000000000004  5.9734399999999992 10.0000000000000000   F   F   F
  0.0000000000000004  1.7309400000000015 11.5525000000000002   F   F   F
  1.5525000000000009 15.2390599999999985 10.0000000000000000   F   F   F
  1.5525000000000007 10.2159400000000016 10.0000000000000000   F   F   F
  1.5525000000000009 14.4584400000000031 11.5525000000000002   F   F   F
  0.0000000000000007 10.9965600000000023 10.0000000000000000   F   F   F
  0.0000000000000013  9.3844100000000008 14.6574999999999989   F   F   F
  1.5525000000000009  5.1419100000000002 14.6574999999999989   F   F   F
  0.0000000000000007  3.3430900000000010 13.1050000000000004   F   F   F
  0.0000000000000017 16.0705899999999993 14.6574999999999989   F   F   F
  1.5525000000000004  0.8994100000000000 13.1050000000000004   F   F   F
  1.5525000000000009  7.5855899999999998 13.1050000000000004   F   F   F
  1.5525000000000013 11.8280899999999978 14.6574999999999989   F   F   F
  0.0000000000000013 13.6269100000000005 13.1050000000000004   F   F   F
  0.0000000000000012  6.7540600000000000 14.6574999999999989   F   F   F
  1.5525000000000009  2.5115600000000002 14.6574999999999989   F   F   F
  0.0000000000000009  5.9734399999999992 13.1050000000000004   F   F   F
  0.0000000000000009  1.7309400000000015 14.6574999999999989   F   F   F
  1.5525000000000013 15.2390599999999985 13.1050000000000004   F   F   F
  1.5525000000000011 10.2159400000000016 13.1050000000000004   F   F   F
  1.5525000000000015 14.4584400000000031 14.6574999999999989   F   F   F
  0.0000000000000012 10.9965600000000023 13.1050000000000004   F   F   F
  0.0000000000000018  9.3844100000000008 17.7624999999999993   T   T   T
  1.5525000000000015  5.1419100000000002 17.7624999999999993   T   T   T
  0.0000000000000012  3.3430900000000014 16.2100000000000009   T   T   T
  0.0000000000000022 16.0705899999999993 17.7624999999999993   T   T   T
  1.5525000000000007  0.8994100000000002 16.2100000000000009   T   T   T
  1.5525000000000011  7.5855899999999998 16.2100000000000009   T   T   T
  1.5525000000000020 11.8280899999999978 17.7624999999999993   T   T   T
  0.0000000000000018 13.6269100000000005 16.2100000000000009   T   T   T
  0.0000000000000017  6.7540600000000000 17.7624999999999993   T   T   T
  1.5525000000000015  2.5115600000000007 17.7624999999999993   T   T   T
  0.0000000000000014  5.9734399999999992 16.2100000000000009   T   T   T
  0.0000000000000014  1.7309400000000017 17.7624999999999993   T   T   T
  1.5525000000000015 15.2390599999999985 16.2100000000000009   T   T   T
  1.5525000000000013 10.2159400000000016 16.2100000000000009   T   T   T
  1.5525000000000022 14.4584400000000031 17.7624999999999993   T   T   T
  0.0000000000000017 10.9965600000000023 16.2100000000000009   T   T   T
  0.0000000000000023  9.3844100000000008 20.8674999999999997   T   T   T
  1.5525000000000020  5.1419100000000011 20.8674999999999997   T   T   T
  0.0000000000000017  3.3430900000000014 19.3149999999999977   T   T   T
  0.0000000000000027 16.0705899999999993 20.8674999999999997   T   T   T
  1.5525000000000013  0.8994100000000004 19.3149999999999977   T   T   T
  1.5525000000000018  7.5855899999999998 19.3149999999999977   T   T   T
  1.5525000000000024 11.8280899999999978 20.8674999999999997   T   T   T
  0.0000000000000023 13.6269100000000005 19.3149999999999977   T   T   T
  0.0000000000000022  6.7540600000000008 20.8674999999999997   T   T   T
  1.5525000000000020  2.5115600000000007 20.8674999999999997   T   T   T
  0.0000000000000019  5.9734400000000001 19.3149999999999977   T   T   T
  0.0000000000000019  1.7309400000000019 20.8674999999999997   T   T   T
  1.5525000000000022 15.2390599999999985 19.3149999999999977   T   T   T
  1.5525000000000020 10.2159400000000016 19.3149999999999977   T   T   T
  1.5525000000000027 14.4584400000000031 20.8674999999999997   T   T   T
  0.0000000000000022 10.9965600000000023 19.3149999999999977   T   T   T
  0.0000000000000019 26.3544100000000014 11.5525000000000002   F   F   F
  1.5525000000000013 22.1119099999999982 11.5525000000000002   F   F   F
  0.0000000000000012 20.3130899999999990 10.0000000000000000   F   F   F
  0.0000000000000023 33.0405899999999946 11.5525000000000002   F   F   F
  1.5525000000000011 17.8694099999999985 10.0000000000000000   F   F   F
  1.5525000000000015 24.5555899999999987 10.0000000000000000   F   F   F
  1.5525000000000018 28.7980899999999949 11.5525000000000002   F   F   F
  0.0000000000000019 30.5969100000000012 10.0000000000000000   F   F   F
  0.0000000000000017 23.7240599999999979 11.5525000000000002   F   F   F
  1.5525000000000013 19.4815599999999982 11.5525000000000002   F   F   F
  0.0000000000000014 22.9434399999999989 10.0000000000000000   F   F   F
  0.0000000000000014 18.7009399999999992 11.5525000000000002   F   F   F
  1.5525000000000020 32.2090599999999938 10.0000000000000000   F   F   F
  1.5525000000000018 27.1859400000000022 10.0000000000000000   F   F   F
  1.5525000000000020 31.4284400000000019 11.5525000000000002   F   F   F
  0.0000000000000017 27.9665600000000012 10.0000000000000000   F   F   F
  0.0000000000000024 26.3544100000000014 14.6574999999999989   F   F   F
  1.5525000000000020 22.1119099999999982 14.6574999999999989   F   F   F
  0.0000000000000017 20.3130899999999990 13.1050000000000004   F   F   F
  0.0000000000000028 33.0405899999999946 14.6574999999999989   F   F   F
  1.5525000000000015 17.8694099999999985 13.1050000000000004   F   F   F
  1.5525000000000020 24.5555899999999987 13.1050000000000004   F   F   F
  1.5525000000000024 28.7980899999999949 14.6574999999999989   F   F   F
  0.0000000000000024 30.5969100000000012 13.1050000000000004   F   F   F
  0.0000000000000022 23.7240599999999979 14.6574999999999989   F   F   F
  1.5525000000000020 19.4815599999999982 14.6574999999999989   F   F   F
  0.0000000000000019 22.9434399999999989 13.1050000000000004   F   F   F
  0.0000000000000019 18.7009399999999992 14.6574999999999989   F   F   F
  1.5525000000000024 32.2090599999999938 13.1050000000000004   F   F   F
  1.5525000000000022 27.1859400000000022 13.1050000000000004   F   F   F
  1.5525000000000027 31.4284400000000019 14.6574999999999989   F   F   F
  0.0000000000000022 27.9665600000000012 13.1050000000000004   F   F   F
  0.0000000000000029 26.3544100000000014 17.7624999999999993   T   T   T
  1.5525000000000027 22.1119099999999982 17.7624999999999993   T   T   T
  0.0000000000000022 20.3130899999999990 16.2100000000000009   T   T   T
  0.0000000000000033 33.0405899999999946 17.7624999999999993   T   T   T
  1.5525000000000018 17.8694099999999985 16.2100000000000009   T   T   T
  1.5525000000000022 24.5555899999999987 16.2100000000000009   T   T   T
  1.5525000000000031 28.7980899999999949 17.7624999999999993   T   T   T
  0.0000000000000029 30.5969100000000012 16.2100000000000009   T   T   T
  0.0000000000000027 23.7240599999999979 17.7624999999999993   T   T   T
  1.5525000000000027 19.4815599999999982 17.7624999999999993   T   T   T
  0.0000000000000024 22.9434399999999989 16.2100000000000009   T   T   T
  0.0000000000000024 18.7009399999999992 17.7624999999999993   T   T   T
  1.5525000000000027 32.2090599999999938 16.2100000000000009   T   T   T
  1.5525000000000024 27.1859400000000022 16.2100000000000009   T   T   T
  1.5525000000000033 31.4284400000000019 17.7624999999999993   T   T   T
  0.0000000000000027 27.9665600000000012 16.2100000000000009   T   T   T
  0.0000000000000034 26.3544100000000014 20.8674999999999997   T   T   T
  1.5525000000000031 22.1119100000000017 20.8674999999999997   T   T   T
  0.0000000000000027 20.3130899999999990 19.3149999999999977   T   T   T
  0.0000000000000038 33.0405899999999946 20.8674999999999997   T   T   T
  1.5525000000000024 17.8694099999999985 19.3149999999999977   T   T   T
  1.5525000000000029 24.5555899999999987 19.3149999999999977   T   T   T
  1.5525000000000035 28.7980899999999949 20.8674999999999997   T   T   T
  0.0000000000000034 30.5969100000000012 19.3149999999999977   T   T   T
  0.0000000000000032 23.7240600000000015 20.8674999999999997   T   T   T
  1.5525000000000031 19.4815599999999982 20.8674999999999997   T   T   T
  0.0000000000000029 22.9434399999999989 19.3149999999999977   T   T   T
  0.0000000000000029 18.7009399999999992 20.8674999999999997   T   T   T
  1.5525000000000033 32.2090599999999938 19.3149999999999977   T   T   T
  1.5525000000000031 27.1859400000000022 19.3149999999999977   T   T   T
  1.5525000000000038 31.4284400000000019 20.8674999999999997   T   T   T
  0.0000000000000032 27.9665600000000012 19.3149999999999977   T   T   T
  0.0000000000000029 43.3244100000000003 11.5525000000000002   F   F   F
  1.5525000000000022 39.0819100000000006 11.5525000000000002   F   F   F
  0.0000000000000023 37.2830900000000014 10.0000000000000000   F   F   F
  0.0000000000000033 50.0105899999999934 11.5525000000000002   F   F   F
  1.5525000000000020 34.8394100000000009 10.0000000000000000   F   F   F
  1.5525000000000024 41.5255899999999940 10.0000000000000000   F   F   F
  1.5525000000000027 45.7680899999999937 11.5525000000000002   F   F   F
  0.0000000000000029 47.5669100000000000 10.0000000000000000   F   F   F
  0.0000000000000027 40.6940600000000003 11.5525000000000002   F   F   F
  1.5525000000000022 36.4515600000000006 11.5525000000000002   F   F   F
  0.0000000000000024 39.9134399999999943 10.0000000000000000   F   F   F
  0.0000000000000024 35.6709400000000016 11.5525000000000002   F   F   F
  1.5525000000000029 49.1790599999999927 10.0000000000000000   F   F   F
  1.5525000000000027 44.1559400000000011 10.0000000000000000   F   F   F
  1.5525000000000029 48.3984400000000008 11.5525000000000002   F   F   F
  0.0000000000000028 44.9365600000000001 10.0000000000000000   F   F   F
  0.0000000000000034 43.3244100000000003 14.6574999999999989   F   F   F
  1.5525000000000029 39.0819100000000006 14.6574999999999989   F   F   F
  0.0000000000000028 37.2830900000000014 13.1050000000000004   F   F   F
  0.0000000000000038 50.0105899999999934 14.6574999999999989   F   F   F
  1.5525000000000024 34.8394100000000009 13.1050000000000004   F   F   F
  1.5525000000000029 41.5255899999999940 13.1050000000000004   F   F   F
  1.5525000000000033 45.7680899999999937 14.6574999999999989   F   F   F
  0.0000000000000034 47.5669100000000000 13.1050000000000004   F   F   F
  0.0000000000000032 40.6940600000000003 14.6574999999999989   F   F   F
  1.5525000000000029 36.4515600000000006 14.6574999999999989   F   F   F
  0.0000000000000029 39.9134399999999943 13.1050000000000004   F   F   F
  0.0000000000000029 35.6709400000000016 14.6574999999999989   F   F   F
  1.5525000000000033 49.1790599999999927 13.1050000000000004   F   F   F
  1.5525000000000031 44.1559400000000011 13.1050000000000004   F   F   F
  1.5525000000000035 48.3984400000000008 14.6574999999999989   F   F   F
  0.0000000000000033 44.9365600000000001 13.1050000000000004   F   F   F
  0.0000000000000039 43.3244100000000003 17.7624999999999993   T   T   T
  1.5525000000000035 39.0819100000000006 17.7624999999999993   T   T   T
  0.0000000000000033 37.2830900000000014 16.2100000000000009   T   T   T
  0.0000000000000043 50.0105899999999934 17.7624999999999993   T   T   T
  1.5525000000000027 34.8394100000000009 16.2100000000000009   T   T   T
  1.5525000000000031 41.5255899999999940 16.2100000000000009   T   T   T
  1.5525000000000040 45.7680899999999937 17.7624999999999993   T   T   T
  0.0000000000000039 47.5669100000000000 16.2100000000000009   T   T   T
  0.0000000000000037 40.6940600000000003 17.7624999999999993   T   T   T
  1.5525000000000035 36.4515600000000006 17.7624999999999993   T   T   T
  0.0000000000000034 39.9134399999999943 16.2100000000000009   T   T   T
  0.0000000000000034 35.6709400000000016 17.7624999999999993   T   T   T
  1.5525000000000035 49.1790599999999927 16.2100000000000009   T   T   T
  1.5525000000000033 44.1559400000000011 16.2100000000000009   T   T   T
  1.5525000000000042 48.3984400000000008 17.7624999999999993   T   T   T
  0.0000000000000038 44.9365600000000001 16.2100000000000009   T   T   T
  0.0000000000000044 43.3244100000000003 20.8674999999999997   T   T   T
  1.5525000000000040 39.0819100000000006 20.8674999999999997   T   T   T
  0.0000000000000038 37.2830900000000014 19.3149999999999977   T   T   T
  0.0000000000000048 50.0105899999999934 20.8674999999999997   T   T   T
  1.5525000000000033 34.8394100000000009 19.3149999999999977   T   T   T
  1.5525000000000038 41.5255899999999940 19.3149999999999977   T   T   T
  1.5525000000000044 45.7680899999999937 20.8674999999999997   T   T   T
  0.0000000000000044 47.5669100000000000 19.3149999999999977   T   T   T
  0.0000000000000042 40.6940600000000003 20.8674999999999997   T   T   T
  1.5525000000000040 36.4515600000000006 20.8674999999999997   T   T   T
  0.0000000000000039 39.9134399999999943 19.3149999999999977   T   T   T
  0.0000000000000039 35.6709400000000016 20.8674999999999997   T   T   T
  1.5525000000000042 49.1790599999999927 19.3149999999999977   T   T   T
  1.5525000000000040 44.1559400000000011 19.3149999999999977   T   T   T
  1.5525000000000047 48.3984400000000008 20.8674999999999997   T   T   T
  0.0000000000000042 44.9365600000000001 19.3149999999999977   T   T   T
  0.0000000000000039 60.2944099999999992 11.5525000000000002   F   F   F
  1.5525000000000033 56.0519099999999995 11.5525000000000002   F   F   F
  0.0000000000000033 54.2530900000000003 10.0000000000000000   F   F   F
  0.0000000000000044 66.9805899999999923 11.5525000000000002   F   F   F
  1.5525000000000031 51.8094099999999997 10.0000000000000000   F   F   F
  1.5525000000000035 58.4955899999999929 10.0000000000000000   F   F   F
  1.5525000000000038 62.7380899999999926 11.5525000000000002   F   F   F
  0.0000000000000040 64.5369099999999918 10.0000000000000000   F   F   F
  0.0000000000000038 57.6640599999999992 11.5525000000000002   F   F   F
  1.5525000000000033 53.4215599999999995 11.5525000000000002   F   F   F
  0.0000000000000035 56.8834399999999931 10.0000000000000000   F   F   F
  0.0000000000000035 52.6409400000000005 11.5525000000000002   F   F   F
  1.5525000000000040 66.1490599999999915 10.0000000000000000   F   F   F
  1.5525000000000038 61.1259399999999999 10.0000000000000000   F   F   F
  1.5525000000000040 65.3684399999999926 11.5525000000000002   F   F   F
  0.0000000000000038 61.9065599999999989 10.0000000000000000   F   F   F
  0.0000000000000044 60.2944099999999992 14.6574999999999989   F   F   F
  1.5525000000000040 56.0519099999999995 14.6574999999999989   F   F   F
  0.0000000000000038 54.2530900000000003 13.1050000000000004   F   F   F
  0.0000000000000049 66.9805899999999923 14.6574999999999989   F   F   F
  1.5525000000000035 51.8094099999999997 13.1050000000000004   F   F   F
  1.5525000000000040 58.4955899999999929 13.1050000000000004   F   F   F
  1.5525000000000044 62.7380899999999926 14.6574999999999989   F   F   F
  0.0000000000000045 64.5369099999999918 13.1050000000000004   F   F   F
  0.0000000000000043 57.6640599999999992 14.6574999999999989   F   F   F
  1.5525000000000040 53.4215599999999995 14.6574999999999989   F   F   F
  0.0000000000000040 56.8834399999999931 13.1050000000000004   F   F   F
  0.0000000000000040 52.6409400000000005 14.6574999999999989   F   F   F
  1.5525000000000044 66.1490599999999915 13.1050000000000004   F   F   F
  1.5525000000000042 61.1259399999999999 13.1050000000000004   F   F   F
  1.5525000000000047 65.3684399999999926 14.6574999999999989   F   F   F
  0.0000000000000043 61.9065599999999989 13.1050000000000004   F   F   F
  0.0000000000000049 60.2944099999999992 17.7624999999999993   T   T   T
  1.5525000000000047 56.0519099999999995 17.7624999999999993   T   T   T
  0.0000000000000043 54.2530900000000003 16.2100000000000009   T   T   T
  0.0000000000000053 66.9805899999999923 17.7624999999999993   T   T   T
  1.5525000000000038 51.8094099999999997 16.2100000000000009   T   T   T
  1.5525000000000042 58.4955899999999929 16.2100000000000009   T   T   T
  1.5525000000000051 62.7380899999999926 17.7624999999999993   T   T   T
  0.0000000000000050 64.5369099999999918 16.2100000000000009   T   T   T
  0.0000000000000048 57.6640599999999992 17.7624999999999993   T   T   T
  1.5525000000000047 53.4215599999999995 17.7624999999999993   T   T   T
  0.0000000000000045 56.8834399999999931 16.2100000000000009   T   T   T
  0.0000000000000045 52.6409400000000005 17.7624999999999993   T   T   T
  1.5525000000000047 66.1490599999999915 16.2100000000000009   T   T   T
  1.5525000000000044 61.1259399999999999 16.2100000000000009   T   T   T
  1.5525000000000053 65.3684399999999926 17.7624999999999993   T   T   T
  0.0000000000000048 61.9065599999999989 16.2100000000000009   T   T   T
  0.0000000000000054 60.2944099999999992 20.8674999999999997   T   T   T
  1.5525000000000051 56.0519099999999995 20.8674999999999997   T   T   T
  0.0000000000000048 54.2530900000000003 19.3149999999999977   T   T   T
  0.0000000000000058 66.9805899999999923 20.8674999999999997   T   T   T
  1.5525000000000044 51.8094099999999997 19.3149999999999977   T   T   T
  1.5525000000000049 58.4955899999999929 19.3149999999999977   T   T   T
  1.5525000000000055 62.7380899999999926 20.8674999999999997   T   T   T
  0.0000000000000054 64.5369099999999918 19.3149999999999977   T   T   T
  0.0000000000000053 57.6640599999999992 20.8674999999999997   T   T   T
  1.5525000000000051 53.4215599999999995 20.8674999999999997   T   T   T
  0.0000000000000050 56.8834399999999931 19.3149999999999977   T   T   T
  0.0000000000000050 52.6409400000000005 20.8674999999999997   T   T   T
  1.5525000000000053 66.1490599999999915 19.3149999999999977   T   T   T
  1.5525000000000051 61.1259399999999999 19.3149999999999977   T   T   T
  1.5525000000000058 65.3684399999999926 20.8674999999999997   T   T   T
  0.0000000000000053 61.9065599999999989 19.3149999999999977   T   T   T
  3.1050000000000009  9.3844100000000008 11.5525000000000002   F   F   F
  4.6575000000000006  5.1419100000000002 11.5525000000000002   F   F   F
  3.1050000000000000  3.3430900000000010 10.0000000000000000   F   F   F
  3.1050000000000013 16.0705899999999993 11.5525000000000002   F   F   F
  4.6574999999999998  0.8994099999999998 10.0000000000000000   F   F   F
  4.6575000000000006  7.5855899999999998 10.0000000000000000   F   F   F
  4.6575000000000006 11.8280899999999978 11.5525000000000002   F   F   F
  3.1050000000000009 13.6269100000000005 10.0000000000000000   F   F   F
  3.1050000000000004  6.7540600000000000 11.5525000000000002   F   F   F
  4.6575000000000006  2.5115600000000002 11.5525000000000002   F   F   F
  3.1050000000000004  5.9734399999999992 10.0000000000000000   F   F   F
  3.1050000000000004  1.7309400000000015 11.5525000000000002   F   F   F
  4.6575000000000006 15.2390599999999985 10.0000000000000000   F   F   F
  4.6575000000000006 10.2159400000000016 10.0000000000000000   F   F   F
  4.6575000000000006 14.4584400000000031 11.5525000000000002   F   F   F
  3.1050000000000009 10.9965600000000023 10.0000000000000000   F   F   F
  3.1050000000000013  9.3844100000000008 14.6574999999999989   F   F   F
  4.6575000000000006  5.1419100000000002 14.6574999999999989   F   F   F
  3.1050000000000009  3.3430900000000010 13.1050000000000004   F   F   F
  3.1050000000000018 16.0705899999999993 14.6574999999999989   F   F   F
  4.6575000000000006  0.8994100000000000 13.1050000000000004   F   F   F
  4.6575000000000006  7.5855899999999998 13.1050000000000004   F   F   F
  4.6575000000000015 11.8280899999999978 14.6574999999999989   F   F   F
  3.1050000000000013 13.6269100000000005 13.1050000000000004   F   F   F
  3.1050000000000013  6.7540600000000000 14.6574999999999989   F   F   F
  4.6575000000000006  2.5115600000000002 14.6574999999999989   F   F   F
  3.1050000000000009  5.9734399999999992 13.1050000000000004   F   F   F
  3.1050000000000009  1.7309400000000015 14.6574999999999989   F   F   F
  4.6575000000000015 15.2390599999999985 13.1050000000000004   F   F   F
  4.6575000000000006 10.2159400000000016 13.1050000000000004   F   F   F
  4.6575000000000015 14.4584400000000031 14.6574999999999989   F   F   F
  3.1050000000000013 10.9965600000000023 13.1050000000000004   F   F   F
  3.1050000000000018  9.3844100000000008 17.7624999999999993   T   T   T
  4.6575000000000015  5.1419100000000002 17.7624999999999993   T   T   T
  3.1050000000000013  3.3430900000000014 16.2100000000000009   T   T   T
  3.1050000000000022 16.0705899999999993 17.7624999999999993   T   T   T
  4.6575000000000006  0.8994100000000002 16.2100000000000009   T   T   T
  4.6575000000000006  7.5855899999999998 16.2100000000000009   T   T   T
  4.6575000000000024 11.8280899999999978 17.7624999999999993   T   T   T
  3.1050000000000018 13.6269100000000005 16.2100000000000009   T   T   T
  3.1050000000000018  6.7540600000000000 17.7624999999999993   T   T   T
  4.6575000000000015  2.5115600000000007 17.7624999999999993   T   T   T
  3.1050000000000013  5.9734399999999992 16.2100000000000009   T   T   T
  3.1050000000000013  1.7309400000000017 17.7624999999999993   T   T   T
  4.6575000000000015 15.2390599999999985 16.2100000000000009   T   T   T
  4.6575000000000015 10.2159400000000016 16.2100000000000009   T   T   T
  4.6575000000000024 14.4584400000000031 17.7624999999999993   T   T   T
  3.1050000000000018 10.9965600000000023 16.2100000000000009   T   T   T
  3.1050000000000022  9.3844100000000008 20.8674999999999997   T   T   T
  4.6575000000000024  5.1419100000000011 20.8674999999999997   T   T   T
  3.1050000000000018  3.3430900000000014 19.3149999999999977   T   T   T
  3.1050000000000026 16.0705899999999993 20.8674999999999997   T   T   T
  4.6575000000000015  0.8994100000000004 19.3149999999999977   T   T   T
  4.6575000000000015  7.5855899999999998 19.3149999999999977   T   T   T
  4.6575000000000024 11.8280899999999978 20.8674999999999997   T   T   T
  3.1050000000000022 13.6269100000000005 19.3149999999999977   T   T   T
  3.1050000000000022  6.7540600000000008 20.8674999999999997   T   T   T
  4.6575000000000024  2.5115600000000007 20.8674999999999997   T   T   T
  3.1050000000000018  5.9734400000000001 19.3149999999999977   T   T   T
  3.1050000000000018  1.7309400000000019 20.8674999999999997   T   T   T
  4.6575000000000024 15.2390599999999985 19.3149999999999977   T   T   T
  4.6575000000000024 10.2159400000000016 19.3149999999999977   T   T   T
  4.6575000000000024 14.4584400000000031 20.8674999999999997   T   T   T
  3.1050000000000022 10.9965600000000023 19.3149999999999977   T   T   T
  3.1050000000000018 26.3544100000000014 11.5525000000000002   F   F   F
  4.6575000000000006 22.1119099999999982 11.5525000000000002   F   F   F
  3.1050000000000009 20.3130899999999990 10.0000000000000000   F   F   F
  3.1050000000000022 33.0405899999999946 11.5525000000000002   F   F   F
  4.6575000000000006 17.8694099999999985 10.0000000000000000   F   F   F
  4.6575000000000015 24.5555899999999987 10.0000000000000000   F   F   F
  4.6575000000000015 28.7980899999999949 11.5525000000000002   F   F   F
  3.1050000000000018 30.5969100000000012 10.0000000000000000   F   F   F
  3.1050000000000013 23.7240599999999979 11.5525000000000002   F   F   F
  4.6575000000000006 19.4815599999999982 11.5525000000000002   F   F   F
  3.1050000000000013 22.9434399999999989 10.0000000000000000   F   F   F
  3.1050000000000013 18.7009399999999992 11.5525000000000002   F   F   F
  4.6575000000000015 32.2090599999999938 10.0000000000000000   F   F   F
  4.6575000000000015 27.1859400000000022 10.0000000000000000   F   F   F
  4.6575000000000015 31.4284400000000019 11.5525000000000002   F   F   F
  3.1050000000000018 27.9665600000000012 10.0000000000000000   F   F   F
  3.1050000000000022 26.3544100000000014 14.6574999999999989   F   F   F
  4.6575000000000015 22.1119099999999982 14.6574999999999989   F   F   F
  3.1050000000000018 20.3130899999999990 13.1050000000000004   F   F   F
  3.1050000000000026 33.0405899999999946 14.6574999999999989   F   F   F
  4.6575000000000015 17.8694099999999985 13.1050000000000004   F   F   F
  4.6575000000000015 24.5555899999999987 13.1050000000000004   F   F   F
  4.6575000000000024 28.7980899999999949 14.6574999999999989   F   F   F
  3.1050000000000022 30.5969100000000012 13.1050000000000004   F   F   F
  3.1050000000000022 23.7240599999999979 14.6574999999999989   F   F   F
  4.6575000000000015 19.4815599999999982 14.6574999999999989   F   F   F
  3.1050000000000018 22.9434399999999989 13.1050000000000004   F   F   F
  3.1050000000000018 18.7009399999999992 14.6574999999999989   F   F   F
  4.6575000000000024 32.2090599999999938 13.1050000000000004   F   F   F
  4.6575000000000024 27.1859400000000022 13.1050000000000004   F   F   F
  4.6575000000000024 31.4284400000000019 14.6574999999999989   F   F   F
  3.1050000000000022 27.9665600000000012 13.1050000000000004   F   F   F
  3.1050000000000026 26.3544100000000014 17.7624999999999993   T   T   T
  4.6575000000000024 22.1119099999999982 17.7624999999999993   T   T   T
  3.1050000000000022 20.3130899999999990 16.2100000000000009   T   T   T
  3.1050000000000031 33.0405899999999946 17.7624999999999993   T   T   T
  4.6575000000000015 17.8694099999999985 16.2100000000000009   T   T   T
  4.6575000000000024 24.5555899999999987 16.2100000000000009   T   T   T
  4.6575000000000024 28.7980899999999949 17.7624999999999993   T   T   T
  3.1050000000000026 30.5969100000000012 16.2100000000000009   T   T   T
  3.1050000000000026 23.7240599999999979 17.7624999999999993   T   T   T
  4.6575000000000024 19.4815599999999982 17.7624999999999993   T   T   T
  3.1050000000000022 22.9434399999999989 16.2100000000000009   T   T   T
  3.1050000000000022 18.7009399999999992 17.7624999999999993   T   T   T
  4.6575000000000024 32.2090599999999938 16.2100000000000009   T   T   T
  4.6575000000000024 27.1859400000000022 16.2100000000000009   T   T   T
  4.6575000000000033 31.4284400000000019 17.7624999999999993   T   T   T
  3.1050000000000026 27.9665600000000012 16.2100000000000009   T   T   T
  3.1050000000000031 26.3544100000000014 20.8674999999999997   T   T   T
  4.6575000000000024 22.1119100000000017 20.8674999999999997   T   T   T
  3.1050000000000026 20.3130899999999990 19.3149999999999977   T   T   T
  3.1050000000000035 33.0405899999999946 20.8674999999999997   T   T   T
  4.6575000000000024 17.8694099999999985 19.3149999999999977   T   T   T
  4.6575000000000024 24.5555899999999987 19.3149999999999977   T   T   T
  4.6575000000000033 28.7980899999999949 20.8674999999999997   T   T   T
  3.1050000000000031 30.5969100000000012 19.3149999999999977   T   T   T
  3.1050000000000031 23.7240600000000015 20.8674999999999997   T   T   T
  4.6575000000000024 19.4815599999999982 20.8674999999999997   T   T   T
  3.1050000000000026 22.9434399999999989 19.3149999999999977   T   T   T
  3.1050000000000026 18.7009399999999992 20.8674999999999997   T   T   T
  4.6575000000000033 32.2090599999999938 19.3149999999999977   T   T   T
  4.6575000000000024 27.1859400000000022 19.3149999999999977   T   T   T
  4.6575000000000033 31.4284400000000019 20.8674999999999997   T   T   T
  3.1050000000000031 27.9665600000000012 19.3149999999999977   T   T   T
  3.1050000000000031 43.3244100000000003 11.5525000000000002   F   F   F
  4.6575000000000024 39.0819100000000006 11.5525000000000002   F   F   F
  3.1050000000000022 37.2830900000000014 10.0000000000000000   F   F   F
  3.1050000000000035 50.0105899999999934 11.5525000000000002   F   F   F
  4.6575000000000024 34.8394100000000009 10.0000000000000000   F   F   F
  4.6575000000000024 41.5255899999999940 10.0000000000000000   F   F   F
  4.6575000000000024 45.7680899999999937 11.5525000000000002   F   F   F
  3.1050000000000031 47.5669100000000000 10.0000000000000000   F   F   F
  3.1050000000000026 40.6940600000000003 11.5525000000000002   F   F   F
  4.6575000000000024 36.4515600000000006 11.5525000000000002   F   F   F
  3.1050000000000026 39.9134399999999943 10.0000000000000000   F   F   F
  3.1050000000000026 35.6709400000000016 11.5525000000000002   F   F   F
  4.6575000000000033 49.1790599999999927 10.0000000000000000   F   F   F
  4.6575000000000024 44.1559400000000011 10.0000000000000000   F   F   F
  4.6575000000000033 48.3984400000000008 11.5525000000000002   F   F   F
  3.1050000000000031 44.9365600000000001 10.0000000000000000   F   F   F
  3.1050000000000035 43.3244100000000003 14.6574999999999989   F   F   F
  4.6575000000000033 39.0819100000000006 14.6574999999999989   F   F   F
  3.1050000000000031 37.2830900000000014 13.1050000000000004   F   F   F
  3.1050000000000040 50.0105899999999934 14.6574999999999989   F   F   F
  4.6575000000000024 34.8394100000000009 13.1050000000000004   F   F   F
  4.6575000000000033 41.5255899999999940 13.1050000000000004   F   F   F
  4.6575000000000033 45.7680899999999937 14.6574999999999989   F   F   F
  3.1050000000000035 47.5669100000000000 13.1050000000000004   F   F   F
  3.1050000000000035 40.6940600000000003 14.6574999999999989   F   F   F
  4.6575000000000033 36.4515600000000006 14.6574999999999989   F   F   F
  3.1050000000000031 39.9134399999999943 13.1050000000000004   F   F   F
  3.1050000000000031 35.6709400000000016 14.6574999999999989   F   F   F
  4.6575000000000033 49.1790599999999927 13.1050000000000004   F   F   F
  4.6575000000000033 44.1559400000000011 13.1050000000000004   F   F   F
  4.6575000000000042 48.3984400000000008 14.6574999999999989   F   F   F
  3.1050000000000035 44.9365600000000001 13.1050000000000004   F   F   F
  3.1050000000000040 43.3244100000000003 17.7624999999999993   T   T   T
  4.6575000000000042 39.0819100000000006 17.7624999999999993   T   T   T
  3.1050000000000035 37.2830900000000014 16.2100000000000009   T   T   T
  3.1050000000000044 50.0105899999999934 17.7624999999999993   T   T   T
  4.6575000000000024 34.8394100000000009 16.2100000000000009   T   T   T
  4.6575000000000033 41.5255899999999940 16.2100000000000009   T   T   T
  4.6575000000000042 45.7680899999999937 17.7624999999999993   T   T   T
  3.1050000000000040 47.5669100000000000 16.2100000000000009   T   T   T
  3.1050000000000040 40.6940600000000003 17.7624999999999993   T   T   T
  4.6575000000000042 36.4515600000000006 17.7624999999999993   T   T   T
  3.1050000000000035 39.9134399999999943 16.2100000000000009   T   T   T
  3.1050000000000035 35.6709400000000016 17.7624999999999993   T   T   T
  4.6575000000000042 49.1790599999999927 16.2100000000000009   T   T   T
  4.6575000000000033 44.1559400000000011 16.2100000000000009   T   T   T
  4.6575000000000042 48.3984400000000008 17.7624999999999993   T   T   T
  3.1050000000000040 44.9365600000000001 16.2100000000000009   T   T   T
  3.1050000000000044 43.3244100000000003 20.8674999999999997   T   T   T
  4.6575000000000042 39.0819100000000006 20.8674999999999997   T   T   T
  3.1050000000000040 37.2830900000000014 19.3149999999999977   T   T   T
  3.1050000000000049 50.0105899999999934 20.8674999999999997   T   T   T
  4.6575000000000033 34.8394100000000009 19.3149999999999977   T   T   T
  4.6575000000000042 41.5255899999999940 19.3149999999999977   T   T   T
  4.6575000000000042 45.7680899999999937 20.8674999999999997   T   T   T
  3.1050000000000044 47.5669100000000000 19.3149999999999977   T   T   T
  3.1050000000000044 40.6940600000000003 20.8674999999999997   T   T   T
  4.6575000000000042 36.4515600000000006 20.8674999999999997   T   T   T
  3.1050000000000040 39.9134399999999943 19.3149999999999977   T   T   T
  3.1050000000000040 35.6709400000000016 20.8674999999999997   T   T   T
  4.6575000000000042 49.1790599999999927 19.3149999999999977   T   T   T
  4.6575000000000042 44.1559400000000011 19.3149999999999977   T   T   T
  4.6575000000000051 48.3984400000000008 20.8674999999999997   T   T   T
  3.1050000000000044 44.9365600000000001 19.3149999999999977   T   T   T
  3.1050000000000040 60.2944099999999992 11.5525000000000002   F   F   F
  4.6575000000000033 56.0519099999999995 11.5525000000000002   F   F   F
  3.1050000000000031 54.2530900000000003 10.0000000000000000   F   F   F
  3.1050000000000044 66.9805899999999923 11.5525000000000002   F   F   F
  4.6575000000000033 51.8094099999999997 10.0000000000000000   F   F   F
  4.6575000000000033 58.4955899999999929 10.0000000000000000   F   F   F
  4.6575000000000042 62.7380899999999926 11.5525000000000002   F   F   F
  3.1050000000000040 64.5369099999999918 10.0000000000000000   F   F   F
  3.1050000000000035 57.6640599999999992 11.5525000000000002   F   F   F
  4.6575000000000033 53.4215599999999995 11.5525000000000002   F   F   F
  3.1050000000000035 56.8834399999999931 10.0000000000000000   F   F   F
  3.1050000000000035 52.6409400000000005 11.5525000000000002   F   F   F
  4.6575000000000042 66.1490599999999915 10.0000000000000000   F   F   F
  4.6575000000000042 61.1259399999999999 10.0000000000000000   F   F   F
  4.6575000000000042 65.3684399999999926 11.5525000000000002   F   F   F
  3.1050000000000040 61.9065599999999989 10.0000000000000000   F   F   F
  3.1050000000000044 60.2944099999999992 14.6574999999999989   F   F   F
  4.6575000000000042 56.0519099999999995 14.6574999999999989   F   F   F
  3.1050000000000040 54.2530900000000003 13.1050000000000004   F   F   F
  3.1050000000000049 66.9805899999999923 14.6574999999999989   F   F   F
  4.6575000000000033 51.8094099999999997 13.1050000000000004   F   F   F
  4.6575000000000042 58.4955899999999929 13.1050000000000004   F   F   F
  4.6575000000000042 62.7380899999999926 14.6574999999999989   F   F   F
  3.1050000000000044 64.5369099999999918 13.1050000000000004   F   F   F
  3.1050000000000044 57.6640599999999992 14.6574999999999989   F   F   F
  4.6575000000000042 53.4215599999999995 14.6574999999999989   F   F   F
  3.1050000000000040 56.8834399999999931 13.1050000000000004   F   F   F
  3.1050000000000040 52.6409400000000005 14.6574999999999989   F   F   F
  4.6575000000000042 66.1490599999999915 13.1050000000000004   F   F   F
  4.6575000000000042 61.1259399999999999 13.1050000000000004   F   F   F
  4.6575000000000042 65.3684399999999926 14.6574999999999989   F   F   F
  3.1050000000000044 61.9065599999999989 13.1050000000000004   F   F   F
  3.1050000000000049 60.2944099999999992 17.7624999999999993   T   T   T
  4.6575000000000042 56.0519099999999995 17.7624999999999993   T   T   T
  3.1050000000000044 54.2530900000000003 16.2100000000000009   T   T   T
  3.1050000000000053 66.9805899999999923 17.7624999999999993   T   T   T
  4.6575000000000042 51.8094099999999997 16.2100000000000009   T   T   T
  4.6575000000000042 58.4955899999999929 16.2100000000000009   T   T   T
  4.6575000000000051 62.7380899999999926 17.7624999999999993   T   T   T
  3.1050000000000049 64.5369099999999918 16.2100000000000009   T   T   T
  3.1050000000000049 57.6640599999999992 17.7624999999999993   T   T   T
  4.6575000000000042 53.4215599999999995 17.7624999999999993   T   T   T
  3.1050000000000044 56.8834399999999931 16.2100000000000009   T   T   T
  3.1050000000000044 52.6409400000000005 17.7624999999999993   T   T   T
  4.6575000000000042 66.1490599999999915 16.2100000000000009   T   T   T
  4.6575000000000042 61.1259399999999999 16.2100000000000009   T   T   T
  4.6575000000000051 65.3684399999999926 17.7624999999999993   T   T   T
  3.1050000000000049 61.9065599999999989 16.2100000000000009   T   T   T
  3.1050000000000053 60.2944099999999992 20.8674999999999997   T   T   T
  4.6575000000000051 56.0519099999999995 20.8674999999999997   T   T   T
  3.1050000000000049 54.2530900000000003 19.3149999999999977   T   T   T
  3.1050000000000058 66.9805899999999923 20.8674999999999997   T   T   T
  4.6575000000000042 51.8094099999999997 19.3149999999999977   T   T   T
  4.6575000000000051 58.4955899999999929 19.3149999999999977   T   T   T
  4.6575000000000060 62.7380899999999926 20.8674999999999997   T   T   T
  3.1050000000000053 64.5369099999999918 19.3149999999999977   T   T   T
  3.1050000000000053 57.6640599999999992 20.8674999999999997   T   T   T
  4.6575000000000051 53.4215599999999995 20.8674999999999997   T   T   T
  3.1050000000000049 56.8834399999999931 19.3149999999999977   T   T   T
  3.1050000000000049 52.6409400000000005 20.8674999999999997   T   T   T
  4.6575000000000051 66.1490599999999915 19.3149999999999977   T   T   T
  4.6575000000000051 61.1259399999999999 19.3149999999999977   T   T   T
  4.6575000000000060 65.3684399999999926 20.8674999999999997   T   T   T
  3.1050000000000053 61.9065599999999989 19.3149999999999977   T   T   T
  6.2100000000000009  9.3844100000000008 11.5525000000000002   F   F   F
  7.7625000000000002  5.1419100000000002 11.5525000000000002   F   F   F
  6.2100000000000000  3.3430900000000010 10.0000000000000000   F   F   F
  6.2100000000000009 16.0705899999999993 11.5525000000000002   F   F   F
  7.7625000000000002  0.8994099999999998 10.0000000000000000   F   F   F
  7.7625000000000002  7.5855899999999998 10.0000000000000000   F   F   F
  7.7625000000000011 11.8280899999999978 11.5525000000000002   F   F   F
  6.2100000000000009 13.6269100000000005 10.0000000000000000   F   F   F
  6.2100000000000009  6.7540600000000000 11.5525000000000002   F   F   F
  7.7625000000000002  2.5115600000000002 11.5525000000000002   F   F   F
  6.2100000000000000  5.9734399999999992 10.0000000000000000   F   F   F
  6.2100000000000000  1.7309400000000015 11.5525000000000002   F   F   F
  7.7625000000000011 15.2390599999999985 10.0000000000000000   F   F   F
  7.7625000000000011 10.2159400000000016 10.0000000000000000   F   F   F
  7.7625000000000011 14.4584400000000031 11.5525000000000002   F   F   F
  6.2100000000000009 10.9965600000000023 10.0000000000000000   F   F   F
  6.2100000000000009  9.3844100000000008 14.6574999999999989   F   F   F
  7.7625000000000011  5.1419100000000002 14.6574999999999989   F   F   F
  6.2100000000000009  3.3430900000000010 13.1050000000000004   F   F   F
  6.2100000000000017 16.0705899999999993 14.6574999999999989   F   F   F
  7.7625000000000002  0.8994100000000000 13.1050000000000004   F   F   F
  7.7625000000000011  7.5855899999999998 13.1050000000000004   F   F   F
  7.7625000000000011 11.8280899999999978 14.6574999999999989   F   F   F
  6.2100000000000017 13.6269100000000005 13.1050000000000004   F   F   F
  6.2100000000000009  6.7540600000000000 14.6574999999999989   F   F   F
  7.7625000000000011  2.5115600000000002 14.6574999999999989   F   F   F
  6.2100000000000009  5.9734399999999992 13.1050000000000004   F   F   F
  6.2100000000000009  1.7309400000000015 14.6574999999999989   F   F   F
  7.7625000000000011 15.2390599999999985 13.1050000000000004   F   F   F
  7.7625000000000011 10.2159400000000016 13.1050000000000004   F   F   F
  7.7625000000000011 14.4584400000000031 14.6574999999999989   F   F   F
  6.2100000000000009 10.9965600000000023 13.1050000000000004   F   F   F
  6.2100000000000017  9.3844100000000008 17.7624999999999993   T   T   T
  7.7625000000000011  5.1419100000000002 17.7624999999999993   T   T   T
  6.2100000000000009  3.3430900000000014 16.2100000000000009   T   T   T
  6.2100000000000026 16.0705899999999993 17.7624999999999993   T   T   T
  7.7625000000000011  0.8994100000000002 16.2100000000000009   T   T   T
  7.7625000000000011  7.5855899999999998 16.2100000000000009   T   T   T
  7.7625000000000020 11.8280899999999978 17.7624999999999993   T   T   T
  6.2100000000000017 13.6269100000000005 16.2100000000000009   T   T   T
  6.2100000000000017  6.7540600000000000 17.7624999999999993   T   T   T
  7.7625000000000011  2.5115600000000007 17.7624999999999993   T   T   T
  6.2100000000000017  5.9734399999999992 16.2100000000000009   T   T   T
  6.2100000000000017  1.7309400000000017 17.7624999999999993   T   T   T
  7.7625000000000011 15.2390599999999985 16.2100000000000009   T   T   T
  7.7625000000000011 10.2159400000000016 16.2100000000000009   T   T   T
  7.7625000000000020 14.4584400000000031 17.7624999999999993   T   T   T
  6.2100000000000017 10.9965600000000023 16.2100000000000009   T   T   T
  6.2100000000000026  9.3844100000000008 20.8674999999999997   T   T   T
  7.7625000000000020  5.1419100000000011 20.8674999999999997   T   T   T
  6.2100000000000017  3.3430900000000014 19.3149999999999977   T   T   T
  6.2100000000000026 16.0705899999999993 20.8674999999999997   T   T   T
  7.7625000000000011  0.8994100000000004 19.3149999999999977   T   T   T
  7.7625000000000020  7.5855899999999998 19.3149999999999977   T   T   T
  7.7625000000000028 11.8280899999999978 20.8674999999999997   T   T   T
  6.2100000000000026 13.6269100000000005 19.3149999999999977   T   T   T
  6.2100000000000017  6.7540600000000008 20.8674999999999997   T   T   T
  7.7625000000000020  2.5115600000000007 20.8674999999999997   T   T   T
  6.2100000000000017  5.9734400000000001 19.3149999999999977   T   T   T
  6.2100000000000017  1.7309400000000019 20.8674999999999997   T   T   T
  7.7625000000000020 15.2390599999999985 19.3149999999999977   T   T   T
  7.7625000000000020 10.2159400000000016 19.3149999999999977   T   T   T
  7.7625000000000028 14.4584400000000031 20.8674999999999997   T   T   T
  6.2100000000000017 10.9965600000000023 19.3149999999999977   T   T   T
  6.2100000000000017 26.3544100000000014 11.5525000000000002   F   F   F
  7.7625000000000011 22.1119099999999982 11.5525000000000002   F   F   F
  6.2100000000000009 20.3130899999999990 10.0000000000000000   F   F   F
  6.2100000000000017 33.0405899999999946 11.5525000000000002   F   F   F
  7.7625000000000011 17.8694099999999985 10.0000000000000000   F   F   F
  7.7625000000000011 24.5555899999999987 10.0000000000000000   F   F   F
  7.7625000000000011 28.7980899999999949 11.5525000000000002   F   F   F
  6.2100000000000017 30.5969100000000012 10.0000000000000000   F   F   F
  6.2100000000000017 23.7240599999999979 11.5525000000000002   F   F   F
  7.7625000000000011 19.4815599999999982 11.5525000000000002   F   F   F
  6.2100000000000009 22.9434399999999989 10.0000000000000000   F   F   F
  6.2100000000000009 18.7009399999999992 11.5525000000000002   F   F   F
  7.7625000000000020 32.2090599999999938 10.0000000000000000   F   F   F
  7.7625000000000011 27.1859400000000022 10.0000000000000000   F   F   F
  7.7625000000000020 31.4284400000000019 11.5525000000000002   F   F   F
  6.2100000000000017 27.9665600000000012 10.0000000000000000   F   F   F
  6.2100000000000017 26.3544100000000014 14.6574999999999989   F   F   F
  7.7625000000000020 22.1119099999999982 14.6574999999999989   F   F   F
  6.2100000000000017 20.3130899999999990 13.1050000000000004   F   F   F
  6.2100000000000026 33.0405899999999946 14.6574999999999989   F   F   F
  7.7625000000000011 17.8694099999999985 13.1050000000000004   F   F   F
  7.7625000000000020 24.5555899999999987 13.1050000000000004   F   F   F
  7.7625000000000020 28.7980899999999949 14.6574999999999989   F   F   F
  6.2100000000000026 30.5969100000000012 13.1050000000000004   F   F   F
  6.2100000000000017 23.7240599999999979 14.6574999999999989   F   F   F
  7.7625000000000020 19.4815599999999982 14.6574999999999989   F   F   F
  6.2100000000000017 22.9434399999999989 13.1050000000000004   F   F   F
  6.2100000000000017 18.7009399999999992 14.6574999999999989   F   F   F
  7.7625000000000020 32.2090599999999938 13.1050000000000004   F   F   F
  7.7625000000000020 27.1859400000000022 13.1050000000000004   F   F   F
  7.7625000000000028 31.4284400000000019 14.6574999999999989   F   F   F
  6.2100000000000017 27.9665600000000012 13.1050000000000004   F   F   F
  6.2100000000000026 26.3544100000000014 17.7624999999999993   T   T   T
  7.7625000000000028 22.1119099999999982 17.7624999999999993   T   T   T
  6.2100000000000017 20.3130899999999990 16.2100000000000009   T   T   T
  6.2100000000000035 33.0405899999999946 17.7624999999999993   T   T   T
  7.7625000000000011 17.8694099999999985 16.2100000000000009   T   T   T
  7.7625000000000020 24.5555899999999987 16.2100000000000009   T   T   T
  7.7625000000000028 28.7980899999999949 17.7624999999999993   T   T   T
  6.2100000000000026 30.5969100000000012 16.2100000000000009   T   T   T
  6.2100000000000026 23.7240599999999979 17.7624999999999993   T   T   T
  7.7625000000000028 19.4815599999999982 17.7624999999999993   T   T   T
  6.2100000000000026 22.9434399999999989 16.2100000000000009   T   T   T
  6.2100000000000026 18.7009399999999992 17.7624999999999993   T   T   T
  7.7625000000000028 32.2090599999999938 16.2100000000000009   T   T   T
  7.7625000000000020 27.1859400000000022 16.2100000000000009   T   T   T
  7.7625000000000028 31.4284400000000019 17.7624999999999993   T   T   T
  6.2100000000000026 27.9665600000000012 16.2100000000000009   T   T   T
  6.2100000000000035 26.3544100000000014 20.8674999999999997   T   T   T
  7.7625000000000028 22.1119100000000017 20.8674999999999997   T   T   T
  6.2100000000000026 20.3130899999999990 19.3149999999999977   T   T   T
  6.2100000000000035 33.0405899999999946 20.8674999999999997   T   T   T
  7.7625000000000020 17.8694099999999985 19.3149999999999977   T   T   T
  7.7625000000000028 24.5555899999999987 19.3149999999999977   T   T   T
  7.7625000000000028 28.7980899999999949 20.8674999999999997   T   T   T
  6.2100000000000035 30.5969100000000012 19.3149999999999977   T   T   T
  6.2100000000000026 23.7240600000000015 20.8674999999999997   T   T   T
  7.7625000000000028 19.4815599999999982 20.8674999999999997   T   T   T
  6.2100000000000026 22.9434399999999989 19.3149999999999977   T   T   T
  6.2100000000000026 18.7009399999999992 20.8674999999999997   T   T   T
  7.7625000000000028 32.2090599999999938 19.3149999999999977   T   T   T
  7.7625000000000028 27.1859400000000022 19.3149999999999977   T   T   T
  7.7625000000000037 31.4284400000000019 20.8674999999999997   T   T   T
  6.2100000000000026 27.9665600000000012 19.3149999999999977   T   T   T
  6.2100000000000026 43.3244100000000003 11.5525000000000002   F   F   F
  7.7625000000000020 39.0819100000000006 11.5525000000000002   F   F   F
  6.2100000000000017 37.2830900000000014 10.0000000000000000   F   F   F
  6.2100000000000026 50.0105899999999934 11.5525000000000002   F   F   F
  7.7625000000000020 34.8394100000000009 10.0000000000000000   F   F   F
  7.7625000000000020 41.5255899999999940 10.0000000000000000   F   F   F
  7.7625000000000028 45.7680899999999937 11.5525000000000002   F   F   F
  6.2100000000000026 47.5669100000000000 10.0000000000000000   F   F   F
  6.2100000000000026 40.6940600000000003 11.5525000000000002   F   F   F
  7.7625000000000020 36.4515600000000006 11.5525000000000002   F   F   F
  6.2100000000000017 39.9134399999999943 10.0000000000000000   F   F   F
  6.2100000000000017 35.6709400000000016 11.5525000000000002   F   F   F
  7.7625000000000028 49.1790599999999927 10.0000000000000000   F   F   F
  7.7625000000000028 44.1559400000000011 10.0000000000000000   F   F   F
  7.7625000000000028 48.3984400000000008 11.5525000000000002   F   F   F
  6.2100000000000026 44.9365600000000001 10.0000000000000000   F   F   F
  6.2100000000000026 43.3244100000000003 14.6574999999999989   F   F   F
  7.7625000000000028 39.0819100000000006 14.6574999999999989   F   F   F
  6.2100000000000026 37.2830900000000014 13.1050000000000004   F   F   F
  6.2100000000000035 50.0105899999999934 14.6574999999999989   F   F   F
  7.7625000000000020 34.8394100000000009 13.1050000000000004   F   F   F
  7.7625000000000028 41.5255899999999940 13.1050000000000004   F   F   F
  7.7625000000000028 45.7680899999999937 14.6574999999999989   F   F   F
  6.2100000000000035 47.5669100000000000 13.1050000000000004   F   F   F
  6.2100000000000026 40.6940600000000003 14.6574999999999989   F   F   F
  7.7625000000000028 36.4515600000000006 14.6574999999999989   F   F   F
  6.2100000000000026 39.9134399999999943 13.1050000000000004   F   F   F
  6.2100000000000026 35.6709400000000016 14.6574999999999989   F   F   F
  7.7625000000000028 49.1790599999999927 13.1050000000000004   F   F   F
  7.7625000000000028 44.1559400000000011 13.1050000000000004   F   F   F
  7.7625000000000028 48.3984400000000008 14.6574999999999989   F   F   F
  6.2100000000000026 44.9365600000000001 13.1050000000000004   F   F   F
  6.2100000000000035 43.3244100000000003 17.7624999999999993   T   T   T
  7.7625000000000028 39.0819100000000006 17.7624999999999993   T   T   T
  6.2100000000000026 37.2830900000000014 16.2100000000000009   T   T   T
  6.2100000000000044 50.0105899999999934 17.7624999999999993   T   T   T
  7.7625000000000028 34.8394100000000009 16.2100000000000009   T   T   T
  7.7625000000000028 41.5255899999999940 16.2100000000000009   T   T   T
  7.7625000000000037 45.7680899999999937 17.7624999999999993   T   T   T
  6.2100000000000035 47.5669100000000000 16.2100000000000009   T   T   T
  6.2100000000000035 40.6940600000000003 17.7624999999999993   T   T   T
  7.7625000000000028 36.4515600000000006 17.7624999999999993   T   T   T
  6.2100000000000035 39.9134399999999943 16.2100000000000009   T   T   T
  6.2100000000000035 35.6709400000000016 17.7624999999999993   T   T   T
  7.7625000000000028 49.1790599999999927 16.2100000000000009   T   T   T
  7.7625000000000028 44.1559400000000011 16.2100000000000009   T   T   T
  7.7625000000000037 48.3984400000000008 17.7624999999999993   T   T   T
  6.2100000000000035 44.9365600000000001 16.2100000000000009   T   T   T
  6.2100000000000044 43.3244100000000003 20.8674999999999997   T   T   T
  7.7625000000000037 39.0819100000000006 20.8674999999999997   T   T   T
  6.2100000000000035 37.2830900000000014 19.3149999999999977   T   T   T
  6.2100000000000044 50.0105899999999934 20.8674999999999997   T   T   T
  7.7625000000000028 34.8394100000000009 19.3149999999999977   T   T   T
  7.7625000000000037 41.5255899999999940 19.3149999999999977   T   T   T
  7.7625000000000046 45.7680899999999937 20.8674999999999997   T   T   T
  6.2100000000000044 47.5669100000000000 19.3149999999999977   T   T   T
  6.2100000000000035 40.6940600000000003 20.8674999999999997   T   T   T
  7.7625000000000037 36.4515600000000006 20.8674999999999997   T   T   T
  6.2100000000000035 39.9134399999999943 19.3149999999999977   T   T   T
  6.2100000000000035 35.6709400000000016 20.8674999999999997   T   T   T
  7.7625000000000037 49.1790599999999927 19.3149999999999977   T   T   T
  7.7625000000000037 44.1559400000000011 19.3149999999999977   T   T   T
  7.7625000000000046 48.3984400000000008 20.8674999999999997   T   T   T
  6.2100000000000035 44.9365600000000001 19.3149999999999977   T   T   T
  6.2100000000000044 60.2944099999999992 11.5525000000000002   F   F   F
  7.7625000000000037 56.0519099999999995 11.5525000000000002   F   F   F
  6.2100000000000035 54.2530900000000003 10.0000000000000000   F   F   F
  6.2100000000000044 66.9805899999999923 11.5525000000000002   F   F   F
  7.7625000000000037 51.8094099999999997 10.0000000000000000   F   F   F
  7.7625000000000037 58.4955899999999929 10.0000000000000000   F   F   F
  7.7625000000000046 62.7380899999999926 11.5525000000000002   F   F   F
  6.2100000000000044 64.5369099999999918 10.0000000000000000   F   F   F
  6.2100000000000044 57.6640599999999992 11.5525000000000002   F   F   F
  7.7625000000000037 53.4215599999999995 11.5525000000000002   F   F   F
  6.2100000000000035 56.8834399999999931 10.0000000000000000   F   F   F
  6.2100000000000035 52.6409400000000005 11.5525000000000002   F   F   F
  7.7625000000000046 66.1490599999999915 10.0000000000000000   F   F   F
  7.7625000000000046 61.1259399999999999 10.0000000000000000   F   F   F
  7.7625000000000046 65.3684399999999926 11.5525000000000002   F   F   F
  6.2100000000000044 61.9065599999999989 10.0000000000000000   F   F   F
  6.2100000000000044 60.2944099999999992 14.6574999999999989   F   F   F
  7.7625000000000046 56.0519099999999995 14.6574999999999989   F   F   F
  6.2100000000000044 54.2530900000000003 13.1050000000000004   F   F   F
  6.2100000000000053 66.9805899999999923 14.6574999999999989   F   F   F
  7.7625000000000037 51.8094099999999997 13.1050000000000004   F   F   F
  7.7625000000000046 58.4955899999999929 13.1050000000000004   F   F   F
  7.7625000000000046 62.7380899999999926 14.6574999999999989   F   F   F
  6.2100000000000053 64.5369099999999918 13.1050000000000004   F   F   F
  6.2100000000000044 57.6640599999999992 14.6574999999999989   F   F   F
  7.7625000000000046 53.4215599999999995 14.6574999999999989   F   F   F
  6.2100000000000044 56.8834399999999931 13.1050000000000004   F   F   F
  6.2100000000000044 52.6409400000000005 14.6574999999999989   F   F   F
  7.7625000000000046 66.1490599999999915 13.1050000000000004   F   F   F
  7.7625000000000046 61.1259399999999999 13.1050000000000004   F   F   F
  7.7625000000000046 65.3684399999999926 14.6574999999999989   F   F   F
  6.2100000000000044 61.9065599999999989 13.1050000000000004   F   F   F
  6.2100000000000053 60.2944099999999992 17.7624999999999993   T   T   T
  7.7625000000000046 56.0519099999999995 17.7624999999999993   T   T   T
  6.2100000000000044 54.2530900000000003 16.2100000000000009   T   T   T
  6.2100000000000062 66.9805899999999923 17.7624999999999993   T   T   T
  7.7625000000000046 51.8094099999999997 16.2100000000000009   T   T   T
  7.7625000000000046 58.4955899999999929 16.2100000000000009   T   T   T
  7.7625000000000055 62.7380899999999926 17.7624999999999993   T   T   T
  6.2100000000000053 64.5369099999999918 16.2100000000000009   T   T   T
  6.2100000000000053 57.6640599999999992 17.7624999999999993   T   T   T
  7.7625000000000046 53.4215599999999995 17.7624999999999993   T   T   T
  6.2100000000000053 56.8834399999999931 16.2100000000000009   T   T   T
  6.2100000000000053 52.6409400000000005 17.7624999999999993   T   T   T
  7.7625000000000046 66.1490599999999915 16.2100000000000009   T   T   T
  7.7625000000000046 61.1259399999999999 16.2100000000000009   T   T   T
  7.7625000000000055 65.3684399999999926 17.7624999999999993   T   T   T
  6.2100000000000053 61.9065599999999989 16.2100000000000009   T   T   T
  6.2100000000000062 60.2944099999999992 20.8674999999999997   T   T   T
  7.7625000000000055 56.0519099999999995 20.8674999999999997   T   T   T
  6.2100000000000053 54.2530900000000003 19.3149999999999977   T   T   T
  6.2100000000000062 66.9805899999999923 20.8674999999999997   T   T   T
  7.7625000000000046 51.8094099999999997 19.3149999999999977   T   T   T
  7.7625000000000055 58.4955899999999929 19.3149999999999977   T   T   T
  7.7625000000000064 62.7380899999999926 20.8674999999999997   T   T   T
  6.2100000000000062 64.5369099999999918 19.3149999999999977   T   T   T
  6.2100000000000053 57.6640599999999992 20.8674999999999997   T   T   T
  7.7625000000000055 53.4215599999999995 20.8674999999999997   T   T   T
  6.2100000000000053 56.8834399999999931 19.3149999999999977   T   T   T
  6.2100000000000053 52.6409400000000005 20.8674999999999997   T   T   T
  7.7625000000000055 66.1490599999999915 19.3149999999999977   T   T   T
  7.7625000000000055 61.1259399999999999 19.3149999999999977   T   T   T
  7.7625000000000064 65.3684399999999926 20.8674999999999997   T   T   T
  6.2100000000000053 61.9065599999999989 19.3149999999999977   T   T   T
  9.3149999999999995  9.3844100000000008 11.5525000000000002   F   F   F
 10.8674999999999997  5.1419100000000002 11.5525000000000002   F   F   F
  9.3149999999999995  3.3430900000000010 10.0000000000000000   F   F   F
  9.3150000000000013 16.0705899999999993 11.5525000000000002   F   F   F
 10.8674999999999997  0.8994099999999998 10.0000000000000000   F   F   F
 10.8674999999999997  7.5855899999999998 10.0000000000000000   F   F   F
 10.8674999999999997 11.8280899999999978 11.5525000000000002   F   F   F
  9.3149999999999995 13.6269100000000005 10.0000000000000000   F   F   F
  9.3149999999999995  6.7540600000000000 11.5525000000000002   F   F   F
 10.8674999999999997  2.5115600000000002 11.5525000000000002   F   F   F
  9.3149999999999995  5.9734399999999992 10.0000000000000000   F   F   F
  9.3149999999999995  1.7309400000000015 11.5525000000000002   F   F   F
 10.8674999999999997 15.2390599999999985 10.0000000000000000   F   F   F
 10.8674999999999997 10.2159400000000016 10.0000000000000000   F   F   F
 10.8674999999999997 14.4584400000000031 11.5525000000000002   F   F   F
  9.3149999999999995 10.9965600000000023 10.0000000000000000   F   F   F
  9.3150000000000013  9.3844100000000008 14.6574999999999989   F   F   F
 10.8674999999999997  5.1419100000000002 14.6574999999999989   F   F   F
  9.3149999999999995  3.3430900000000010 13.1050000000000004   F   F   F
  9.3150000000000013 16.0705899999999993 14.6574999999999989   F   F   F
 10.8674999999999997  0.8994100000000000 13.1050000000000004   F   F   F
 10.8674999999999997  7.5855899999999998 13.1050000000000004   F   F   F
 10.8675000000000015 11.8280899999999978 14.6574999999999989   F   F   F
  9.3150000000000013 13.6269100000000005 13.1050000000000004   F   F   F
  9.3150000000000013  6.7540600000000000 14.6574999999999989   F   F   F
 10.8674999999999997  2.5115600000000002 14.6574999999999989   F   F   F
  9.3149999999999995  5.9734399999999992 13.1050000000000004   F   F   F
  9.3149999999999995  1.7309400000000015 14.6574999999999989   F   F   F
 10.8675000000000015 15.2390599999999985 13.1050000000000004   F   F   F
 10.8674999999999997 10.2159400000000016 13.1050000000000004   F   F   F
 10.8675000000000015 14.4584400000000031 14.6574999999999989   F   F   F
  9.3150000000000013 10.9965600000000023 13.1050000000000004   F   F   F
  9.3150000000000013  9.3844100000000008 17.7624999999999993   T   T   T
 10.8675000000000015  5.1419100000000002 17.7624999999999993   T   T   T
  9.3150000000000013  3.3430900000000014 16.2100000000000009   T   T   T
  9.3150000000000013 16.0705899999999993 17.7624999999999993   T   T   T
 10.8674999999999997  0.8994100000000002 16.2100000000000009   T   T   T
 10.8674999999999997  7.5855899999999998 16.2100000000000009   T   T   T
 10.8675000000000015 11.8280899999999978 17.7624999999999993   T   T   T
  9.3150000000000013 13.6269100000000005 16.2100000000000009   T   T   T
  9.3150000000000013  6.7540600000000000 17.7624999999999993   T   T   T
 10.8675000000000015  2.5115600000000007 17.7624999999999993   T   T   T
  9.3150000000000013  5.9734399999999992 16.2100000000000009   T   T   T
  9.3150000000000013  1.7309400000000017 17.7624999999999993   T   T   T
 10.8675000000000015 15.2390599999999985 16.2100000000000009   T   T   T
 10.8675000000000015 10.2159400000000016 16.2100000000000009   T   T   T
 10.8675000000000015 14.4584400000000031 17.7624999999999993   T   T   T
  9.3150000000000013 10.9965600000000023 16.2100000000000009   T   T   T
  9.3150000000000013  9.3844100000000008 20.8674999999999997   T   T   T
 10.8675000000000015  5.1419100000000011 20.8674999999999997   T   T   T
  9.3150000000000013  3.3430900000000014 19.3149999999999977   T   T   T
  9.3150000000000031 16.0705899999999993 20.8674999999999997   T   T   T
 10.8675000000000015  0.8994100000000004 19.3149999999999977   T   T   T
 10.8675000000000015  7.5855899999999998 19.3149999999999977   T   T   T
 10.8675000000000015 11.8280899999999978 20.8674999999999997   T   T   T
  9.3150000000000013 13.6269100000000005 19.3149999999999977   T   T   T
  9.3150000000000013  6.7540600000000008 20.8674999999999997   T   T   T
 10.8675000000000015  2.5115600000000007 20.8674999999999997   T   T   T
  9.3150000000000013  5.9734400000000001 19.3149999999999977   T   T   T
  9.3150000000000013  1.7309400000000019 20.8674999999999997   T   T   T
 10.8675000000000015 15.2390599999999985 19.3149999999999977   T   T   T
 10.8675000000000015 10.2159400000000016 19.3149999999999977   T   T   T
 10.8675000000000015 14.4584400000000031 20.8674999999999997   T   T   T
  9.3150000000000013 10.9965600000000023 19.3149999999999977   T   T   T
  9.3150000000000013 26.3544100000000014 11.5525000000000002   F   F   F
 10.8675000000000015 22.1119099999999982 11.5525000000000002   F   F   F
  9.3150000000000013 20.3130899999999990 10.0000000000000000   F   F   F
  9.3150000000000031 33.0405899999999946 11.5525000000000002   F   F   F
 10.8675000000000015 17.8694099999999985 10.0000000000000000   F   F   F
 10.8675000000000015 24.5555899999999987 10.0000000000000000   F   F   F
 10.8675000000000015 28.7980899999999949 11.5525000000000002   F   F   F
  9.3150000000000013 30.5969100000000012 10.0000000000000000   F   F   F
  9.3150000000000013 23.7240599999999979 11.5525000000000002   F   F   F
 10.8675000000000015 19.4815599999999982 11.5525000000000002   F   F   F
  9.3150000000000013 22.9434399999999989 10.0000000000000000   F   F   F
  9.3150000000000013 18.7009399999999992 11.5525000000000002   F   F   F
 10.8675000000000015 32.2090599999999938 10.0000000000000000   F   F   F
 10.8675000000000015 27.1859400000000022 10.0000000000000000   F   F   F
 10.8675000000000015 31.4284400000000019 11.5525000000000002   F   F   F
  9.3150000000000013 27.9665600000000012 10.0000000000000000   F   F   F
  9.3150000000000031 26.3544100000000014 14.6574999999999989   F   F   F
 10.8675000000000015 22.1119099999999982 14.6574999999999989   F   F   F
  9.3150000000000013 20.3130899999999990 13.1050000000000004   F   F   F
  9.3150000000000031 33.0405899999999946 14.6574999999999989   F   F   F
 10.8675000000000015 17.8694099999999985 13.1050000000000004   F   F   F
 10.8675000000000015 24.5555899999999987 13.1050000000000004   F   F   F
 10.8675000000000033 28.7980899999999949 14.6574999999999989   F   F   F
  9.3150000000000031 30.5969100000000012 13.1050000000000004   F   F   F
  9.3150000000000031 23.7240599999999979 14.6574999999999989   F   F   F
 10.8675000000000015 19.4815599999999982 14.6574999999999989   F   F   F
  9.3150000000000013 22.9434399999999989 13.1050000000000004   F   F   F
  9.3150000000000013 18.7009399999999992 14.6574999999999989   F   F   F
 10.8675000000000033 32.2090599999999938 13.1050000000000004   F   F   F
 10.8675000000000033 27.1859400000000022 13.1050000000000004   F   F   F
 10.8675000000000033 31.4284400000000019 14.6574999999999989   F   F   F
  9.3150000000000031 27.9665600000000012 13.1050000000000004   F   F   F
  9.3150000000000031 26.3544100000000014 17.7624999999999993   T   T   T
 10.8675000000000033 22.1119099999999982 17.7624999999999993   T   T   T
  9.3150000000000031 20.3130899999999990 16.2100000000000009   T   T   T
  9.3150000000000031 33.0405899999999946 17.7624999999999993   T   T   T
 10.8675000000000015 17.8694099999999985 16.2100000000000009   T   T   T
 10.8675000000000033 24.5555899999999987 16.2100000000000009   T   T   T
 10.8675000000000033 28.7980899999999949 17.7624999999999993   T   T   T
  9.3150000000000031 30.5969100000000012 16.2100000000000009   T   T   T
  9.3150000000000031 23.7240599999999979 17.7624999999999993   T   T   T
 10.8675000000000033 19.4815599999999982 17.7624999999999993   T   T   T
  9.3150000000000031 22.9434399999999989 16.2100000000000009   T   T   T
  9.3150000000000031 18.7009399999999992 17.7624999999999993   T   T   T
 10.8675000000000033 32.2090599999999938 16.2100000000000009   T   T   T
 10.8675000000000033 27.1859400000000022 16.2100000000000009   T   T   T
 10.8675000000000033 31.4284400000000019 17.7624999999999993   T   T   T
  9.3150000000000031 27.9665600000000012 16.2100000000000009   T   T   T
  9.3150000000000031 26.3544100000000014 20.8674999999999997   T   T   T
 10.8675000000000033 22.1119100000000017 20.8674999999999997   T   T   T
  9.3150000000000031 20.3130899999999990 19.3149999999999977   T   T   T
  9.3150000000000048 33.0405899999999946 20.8674999999999997   T   T   T
 10.8675000000000033 17.8694099999999985 19.3149999999999977   T   T   T
 10.8675000000000033 24.5555899999999987 19.3149999999999977   T   T   T
 10.8675000000000033 28.7980899999999949 20.8674999999999997   T   T   T
  9.3150000000000031 30.5969100000000012 19.3149999999999977   T   T   T
  9.3150000000000031 23.7240600000000015 20.8674999999999997   T   T   T
 10.8675000000000033 19.4815599999999982 20.8674999999999997   T   T   T
  9.3150000000000031 22.9434399999999989 19.3149999999999977   T   T   T
  9.3150000000000031 18.7009399999999992 20.8674999999999997   T   T   T
 10.8675000000000033 32.2090599999999938 19.3149999999999977   T   T   T
 10.8675000000000033 27.1859400000000022 19.3149999999999977   T   T   T
 10.8675000000000033 31.4284400000000019 20.8674999999999997   T   T   T
  9.3150000000000031 27.9665600000000012 19.3149999999999977   T   T   T
  9.3150000000000013 43.3244100000000003 11.5525000000000002   F   F   F
 10.8675000000000015 39.0819100000000006 11.5525000000000002   F   F   F
  9.3150000000000013 37.2830900000000014 10.0000000000000000   F   F   F
  9.3150000000000031 50.0105899999999934 11.5525000000000002   F   F   F
 10.8675000000000015 34.8394100000000009 10.0000000000000000   F   F   F
 10.8675000000000015 41.5255899999999940 10.0000000000000000   F   F   F
 10.8675000000000015 45.7680899999999937 11.5525000000000002   F   F   F
  9.3150000000000013 47.5669100000000000 10.0000000000000000   F   F   F
  9.3150000000000013 40.6940600000000003 11.5525000000000002   F   F   F
 10.8675000000000015 36.4515600000000006 11.5525000000000002   F   F   F
  9.3150000000000013 39.9134399999999943 10.0000000000000000   F   F   F
  9.3150000000000013 35.6709400000000016 11.5525000000000002   F   F   F
 10.8675000000000015 49.1790599999999927 10.0000000000000000   F   F   F
 10.8675000000000015 44.1559400000000011 10.0000000000000000   F   F   F
 10.8675000000000015 48.3984400000000008 11.5525000000000002   F   F   F
  9.3150000000000013 44.9365600000000001 10.0000000000000000   F   F   F
  9.3150000000000031 43.3244100000000003 14.6574999999999989   F   F   F
 10.8675000000000015 39.0819100000000006 14.6574999999999989   F   F   F
  9.3150000000000013 37.2830900000000014 13.1050000000000004   F   F   F
  9.3150000000000031 50.0105899999999934 14.6574999999999989   F   F   F
 10.8675000000000015 34.8394100000000009 13.1050000000000004   F   F   F
 10.8675000000000015 41.5255899999999940 13.1050000000000004   F   F   F
 10.8675000000000033 45.7680899999999937 14.6574999999999989   F   F   F
  9.3150000000000031 47.5669100000000000 13.1050000000000004   F   F   F
  9.3150000000000031 40.6940600000000003 14.6574999999999989   F   F   F
 10.8675000000000015 36.4515600000000006 14.6574999999999989   F   F   F
  9.3150000000000013 39.9134399999999943 13.1050000000000004   F   F   F
  9.3150000000000013 35.6709400000000016 14.6574999999999989   F   F   F
 10.8675000000000033 49.1790599999999927 13.1050000000000004   F   F   F
 10.8675000000000033 44.1559400000000011 13.1050000000000004   F   F   F
 10.8675000000000033 48.3984400000000008 14.6574999999999989   F   F   F
  9.3150000000000031 44.9365600000000001 13.1050000000000004   F   F   F
  9.3150000000000031 43.3244100000000003 17.7624999999999993   T   T   T
 10.8675000000000033 39.0819100000000006 17.7624999999999993   T   T   T
  9.3150000000000031 37.2830900000000014 16.2100000000000009   T   T   T
  9.3150000000000031 50.0105899999999934 17.7624999999999993   T   T   T
 10.8675000000000015 34.8394100000000009 16.2100000000000009   T   T   T
 10.8675000000000033 41.5255899999999940 16.2100000000000009   T   T   T
 10.8675000000000033 45.7680899999999937 17.7624999999999993   T   T   T
  9.3150000000000031 47.5669100000000000 16.2100000000000009   T   T   T
  9.3150000000000031 40.6940600000000003 17.7624999999999993   T   T   T
 10.8675000000000033 36.4515600000000006 17.7624999999999993   T   T   T
  9.3150000000000031 39.9134399999999943 16.2100000000000009   T   T   T
  9.3150000000000031 35.6709400000000016 17.7624999999999993   T   T   T
 10.8675000000000033 49.1790599999999927 16.2100000000000009   T   T   T
 10.8675000000000033 44.1559400000000011 16.2100000000000009   T   T   T
 10.8675000000000033 48.3984400000000008 17.7624999999999993   T   T   T
  9.3150000000000031 44.9365600000000001 16.2100000000000009   T   T   T
  9.3150000000000031 43.3244100000000003 20.8674999999999997   T   T   T
 10.8675000000000033 39.0819100000000006 20.8674999999999997   T   T   T
  9.3150000000000031 37.2830900000000014 19.3149999999999977   T   T   T
  9.3150000000000048 50.0105899999999934 20.8674999999999997   T   T   T
 10.8675000000000033 34.8394100000000009 19.3149999999999977   T   T   T
 10.8675000000000033 41.5255899999999940 19.3149999999999977   T   T   T
 10.8675000000000033 45.7680899999999937 20.8674999999999997   T   T   T
  9.3150000000000031 47.5669100000000000 19.3149999999999977   T   T   T
  9.3150000000000031 40.6940600000000003 20.8674999999999997   T   T   T
 10.8675000000000033 36.4515600000000006 20.8674999999999997   T   T   T
  9.3150000000000031 39.9134399999999943 19.3149999999999977   T   T   T
  9.3150000000000031 35.6709400000000016 20.8674999999999997   T   T   T
 10.8675000000000033 49.1790599999999927 19.3149999999999977   T   T   T
 10.8675000000000033 44.1559400000000011 19.3149999999999977   T   T   T
 10.8675000000000033 48.3984400000000008 20.8674999999999997   T   T   T
  9.3150000000000031 44.9365600000000001 19.3149999999999977   T   T   T
  9.3150000000000031 60.2944099999999992 11.5525000000000002   F   F   F
 10.8675000000000033 56.0519099999999995 11.5525000000000002   F   F   F
  9.3150000000000031 54.2530900000000003 10.0000000000000000   F   F   F
  9.3150000000000048 66.9805899999999923 11.5525000000000002   F   F   F
 10.8675000000000033 51.8094099999999997 10.0000000000000000   F   F   F
 10.8675000000000033 58.4955899999999929 10.0000000000000000   F   F   F
 10.8675000000000033 62.7380899999999926 11.5525000000000002   F   F   F
  9.3150000000000031 64.5369099999999918 10.0000000000000000   F   F   F
  9.3150000000000031 57.6640599999999992 11.5525000000000002   F   F   F
 10.8675000000000033 53.4215599999999995 11.5525000000000002   F   F   F
  9.3150000000000031 56.8834399999999931 10.0000000000000000   F   F   F
  9.3150000000000031 52.6409400000000005 11.5525000000000002   F   F   F
 10.8675000000000033 66.1490599999999915 10.0000000000000000   F   F   F
 10.8675000000000033 61.1259399999999999 10.0000000000000000   F   F   F
 10.8675000000000033 65.3684399999999926 11.5525000000000002   F   F   F
  9.3150000000000031 61.9065599999999989 10.0000000000000000   F   F   F
  9.3150000000000048 60.2944099999999992 14.6574999999999989   F   F   F
 10.8675000000000033 56.0519099999999995 14.6574999999999989   F   F   F
  9.3150000000000031 54.2530900000000003 13.1050000000000004   F   F   F
  9.3150000000000048 66.9805899999999923 14.6574999999999989   F   F   F
 10.8675000000000033 51.8094099999999997 13.1050000000000004   F   F   F
 10.8675000000000033 58.4955899999999929 13.1050000000000004   F   F   F
 10.8675000000000050 62.7380899999999926 14.6574999999999989   F   F   F
  9.3150000000000048 64.5369099999999918 13.1050000000000004   F   F   F
  9.3150000000000048 57.6640599999999992 14.6574999999999989   F   F   F
 10.8675000000000033 53.4215599999999995 14.6574999999999989   F   F   F
  9.3150000000000031 56.8834399999999931 13.1050000000000004   F   F   F
  9.3150000000000031 52.6409400000000005 14.6574999999999989   F   F   F
 10.8675000000000050 66.1490599999999915 13.1050000000000004   F   F   F
 10.8675000000000033 61.1259399999999999 13.1050000000000004   F   F   F
 10.8675000000000050 65.3684399999999926 14.6574999999999989   F   F   F
  9.3150000000000048 61.9065599999999989 13.1050000000000004   F   F   F
  9.3150000000000048 60.2944099999999992 17.7624999999999993   T   T   T
 10.8675000000000050 56.0519099999999995 17.7624999999999993   T   T   T
  9.3150000000000048 54.2530900000000003 16.2100000000000009   T   T   T
  9.3150000000000048 66.9805899999999923 17.7624999999999993   T   T   T
 10.8675000000000033 51.8094099999999997 16.2100000000000009   T   T   T
 10.8675000000000033 58.4955899999999929 16.2100000000000009   T   T   T
 10.8675000000000050 62.7380899999999926 17.7624999999999993   T   T   T
  9.3150000000000048 64.5369099999999918 16.2100000000000009   T   T   T
  9.3150000000000048 57.6640599999999992 17.7624999999999993   T   T   T
 10.8675000000000050 53.4215599999999995 17.7624999999999993   T   T   T
  9.3150000000000048 56.8834399999999931 16.2100000000000009   T   T   T
  9.3150000000000048 52.6409400000000005 17.7624999999999993   T   T   T
 10.8675000000000050 66.1490599999999915 16.2100000000000009   T   T   T
 10.8675000000000050 61.1259399999999999 16.2100000000000009   T   T   T
 10.8675000000000050 65.3684399999999926 17.7624999999999993   T   T   T
  9.3150000000000048 61.9065599999999989 16.2100000000000009   T   T   T
  9.3150000000000048 60.2944099999999992 20.8674999999999997   T   T   T
 10.8675000000000050 56.0519099999999995 20.8674999999999997   T   T   T
  9.3150000000000048 54.2530900000000003 19.3149999999999977   T   T   T
  9.3150000000000066 66.9805899999999923 20.8674999999999997   T   T   T
 10.8675000000000050 51.8094099999999997 19.3149999999999977   T   T   T
 10.8675000000000050 58.4955899999999929 19.3149999999999977   T   T   T
 10.8675000000000050 62.7380899999999926 20.8674999999999997   T   T   T
  9.3150000000000048 64.5369099999999918 19.3149999999999977   T   T   T
  9.3150000000000048 57.6640599999999992 20.8674999999999997   T   T   T
 10.8675000000000050 53.4215599999999995 20.8674999999999997   T   T   T
  9.3150000000000048 56.8834399999999931 19.3149999999999977   T   T   T
  9.3150000000000048 52.6409400000000005 20.8674999999999997   T   T   T
 10.8675000000000050 66.1490599999999915 19.3149999999999977   T   T   T
 10.8675000000000050 61.1259399999999999 19.3149999999999977   T   T   T
 10.8675000000000050 65.3684399999999926 20.8674999999999997   T   T   T
  9.3150000000000048 61.9065599999999989 19.3149999999999977   T   T   T
