Mo N  Mo N  Mo N  Mo N  Mo N  Mo N  Mo N  Mo N  Mo N  Mo N  Mo N  Mo N  Mo N  Mo N  Mo N  Mo N  Mo N  Mo N  Mo N  Mo Ru Mo N  Mo N  Mo N  Mo N  Mo N  Mo N  Mo N  Mo N  Mo N  Mo N  Mo N  Mo N  Mo N  Mo N  Mo N  Mo N  Mo N 
 1.0000000000000000
    17.8190908859009980    0.0000000000000000    0.0000000000000000
   -17.8190908859009980   29.8918048969947634    0.0000000000000000
     0.0000000000000000    0.0000000000000000   24.3456744503137941
 Mo  N   Mo  N   Mo  N   Mo  N   Mo  N   Mo  N   Mo  N   Mo  N   Mo  N   Mo  N   Mo  N   Mo  N   Mo  N   Mo  N   Mo  N   Mo  N   Mo  N   Mo  N   Mo  N   Mo  Ru  Mo  N   Mo  N   Mo  N   Mo  N   Mo  N   Mo  N   Mo  N   Mo  N   Mo  N   Mo  N   Mo  N   Mo  N   Mo  N   Mo  N   Mo  N   Mo  N   Mo  N  
   8   4   8   4   8   4   8   4   8   4   8   4   8   4   8   4   8   4   8   4   8   4   8   4   8   4   8   4   8   4   8   4   8   4   8   4   8   4   1   1   6   4   8   4   8   4   8   4   8   4   8   4   8   4   8   4   8   4   8   4   8   4   8   4   8   4   8   4   8   4   8   4   8   4
Selective dynamics
Cartesian
  0.0000000000000000  0.0000000000000000  7.9999999999999991   F   F   F
  2.9698484809834991  0.0000000000000000  7.9999999999999991   F   F   F
 -1.4849242404917515  7.4729512242486917  8.0000000000000000   F   F   F
 -4.4547727214752495  7.4729512242486917  7.9999999999999991   F   F   F
 -2.9698484809835000  4.9819674828324603  7.9999999999999991   F   F   F
 -0.0000000000000004  4.9819674828324603  7.9999999999999991   F   F   F
  1.4849242404917491  2.4909837414162301  7.9999999999999991   F   F   F
 -1.4849242404917500  2.4909837414162301  7.9999999999999991   F   F   F
  1.4849242404917498  0.8851924496088295  9.1922392071876828   F   F   F
 -2.9698484809835008  8.3581436738575210  9.1922392071876864   F   F   F
  1.4849242404917495  5.8671599324412904  9.1922392071876828   F   F   F
  2.9698484809834995  3.3761761910250598  9.1922392071876828   F   F   F
  2.9698484809834995  1.7703848992176590 10.3844784143753692   F   F   F
 -0.0000000000000013  1.7703848992176592 10.3844784143753692   F   F   F
 -4.4547727214752513  9.2433361234663494 10.3844784143753692   F   F   F
 -1.4849242404917509  9.2433361234663494 10.3844784143753692   F   F   F
 -0.0000000000000008  6.7523523820501197 10.3844784143753692   F   F   F
 -2.9698484809835013  6.7523523820501197 10.3844784143753692   F   F   F
 -1.4849242404917511  4.2613686406338891 10.3844784143753692   F   F   F
  1.4849242404917495  4.2613686406338891 10.3844784143753692   F   F   F
 -1.4849242404917511  2.6555773488264887 11.5767176215630556   F   F   F
 -0.0000000000000000  0.1645936074102592 11.5767176215630556   F   F   F
 -1.4849242404917495  7.6375448316589489 11.5767176215630556   F   F   F
 -0.0000000000000010  5.1465610902427184 11.5767176215630556   F   F   F
  0.0000000000000004  3.5407697984353179 12.7689568287507385   T   T   T
  2.9698484809834973  3.5407697984353179 12.7689568287507385   T   T   T
  4.4547727214752468  1.0497860570190889 12.7689568287507385   T   T   T
  1.4849242404917498  1.0497860570190889 12.7689568287507385   T   T   T
 -2.9698484809834995  8.5227372812677782 12.7689568287507385   T   T   T
 -0.0000000000000027  8.5227372812677782 12.7689568287507385   T   T   T
  1.4849242404917473  6.0317535398515485 12.7689568287507385   T   T   T
 -1.4849242404917495  6.0317535398515485 12.7689568287507385   T   T   T
  1.4849242404917464  4.4259622480441472 13.9611960359384248   T   T   T
  2.9698484809834982  1.9349785066279188 13.9611960359384248   T   T   T
 -4.4547727214752513  9.4079297308766083 13.9611960359384248   T   T   T
 -2.9698484809835008  6.9169459894603778 13.9611960359384248   T   T   T
 -2.9698484809835022  5.3111546976529773 15.1534352431261112   T   T   T
  0.0000000000000001  5.3111546976529773 15.1534352431261077   T   T   T
  1.4849242404917493  2.8201709562367485 15.1534352431261112   T   T   T
 -1.4849242404917500  2.8201709562367485 15.1534352431261112   T   T   T
 -0.0000000000000013  0.3291872148205162 15.1534352431261112   T   T   T
  2.9698484809835008  0.3291872148205162 15.1534352431261077   T   T   T
 -1.4849242404917500  7.8021384390692079 15.1534352431261112   T   T   T
 -4.4547727214752522  7.8021384390692079 15.1534352431261112   T   T   T
 -1.4849242404917509  6.1963471472618075 16.3456744503137941   T   T   T
 -0.0000000000000001  3.7053634058455760 16.3456744503137941   T   T   T
  4.4547727214752468  1.2143796644293461 16.3456744503137941   T   T   T
 -0.0000000000000039  8.6873308886780372 16.3456744503137941   T   T   T
 -5.9396969619669999  9.9639349656649205  7.9999999999999991   F   F   F
 -2.9698484809835008  9.9639349656649205  7.9999999999999991   F   F   F
 -7.4246212024587512 17.4368861899136114  8.0000000000000000   F   F   F
 -10.3944696834422494 17.4368861899136114  7.9999999999999991   F   F   F
 -8.9095454429504990 14.9459024484973817  7.9999999999999991   F   F   F
 -5.9396969619669999 14.9459024484973817  7.9999999999999991   F   F   F
 -4.4547727214752513 12.4549187070811502  7.9999999999999991   F   F   F
 -7.4246212024587503 12.4549187070811502  7.9999999999999991   F   F   F
 -4.4547727214752504 10.8491274152737507  9.1922392071876828   F   F   F
 -8.9095454429505008 18.3220786395224415  9.1922392071876864   F   F   F
 -4.4547727214752504 15.8310948981062118  9.1922392071876828   F   F   F
 -2.9698484809835004 13.3401111566899804  9.1922392071876828   F   F   F
 -2.9698484809835004 11.7343198648825791 10.3844784143753692   F   F   F
 -5.9396969619670008 11.7343198648825791 10.3844784143753692   F   F   F
 -10.3944696834422512 19.2072710891312681 10.3844784143753692   F   F   F
 -7.4246212024587503 19.2072710891312681 10.3844784143753692   F   F   F
 -5.9396969619670008 16.7162873477150384 10.3844784143753692   F   F   F
 -8.9095454429505008 16.7162873477150384 10.3844784143753692   F   F   F
 -7.4246212024587512 14.2253036062988087 10.3844784143753692   F   F   F
 -4.4547727214752504 14.2253036062988087 10.3844784143753692   F   F   F
 -7.4246212024587512 12.6195123144914092 11.5767176215630556   F   F   F
 -5.9396969619669999 10.1285285730751795 11.5767176215630556   F   F   F
 -7.4246212024587495 17.6014797973238686 11.5767176215630556   F   F   F
 -5.9396969619670008 15.1104960559076389 11.5767176215630556   F   F   F
 -5.9396969619669999 13.5047047641002393 12.7689568287507385   T   T   T
 -2.9698484809835026 13.5047047641002393 12.7689568287507385   T   T   T
 -1.4849242404917531 11.0137210226840097 12.7689568287507385   T   T   T
 -4.4547727214752504 11.0137210226840097 12.7689568287507385   T   T   T
 -8.9095454429504990 18.4866722469326987 12.7689568287507385   T   T   T
 -5.9396969619670026 18.4866722469326987 12.7689568287507385   T   T   T
 -4.4547727214752531 15.9956885055164690 12.7689568287507385   T   T   T
 -7.4246212024587495 15.9956885055164690 12.7689568287507385   T   T   T
 -4.4547727214752531 14.3898972137090677 13.9611960359384248   T   T   T
 -2.9698484809835017 11.8989134722928398 13.9611960359384248   T   T   T
 -10.3944696834422512 19.3718646965415289 13.9611960359384248   T   T   T
 -8.9095454429505008 16.8808809551252992 13.9611960359384248   T   T   T
 -8.9095454429505025 15.2750896633178979 15.1534352431261112   T   T   T
 -5.9396969619669999 15.2750896633178979 15.1534352431261077   T   T   T
 -4.4547727214752504 12.7841059219016699 15.1534352431261112   T   T   T
 -7.4246212024587503 12.7841059219016699 15.1534352431261112   T   T   T
 -5.9396969619670017 10.2931221804854367 15.1534352431261112   T   T   T
 -2.9698484809834991 10.2931221804854367 15.1534352431261077   T   T   T
 -7.4246212024587503 17.7660734047341293 15.1534352431261112   T   T   T
 -10.3944696834422530 17.7660734047341293 15.1534352431261112   T   T   T
 -7.4246212024587503 16.1602821129267298 16.3456744503137941   T   T   T
 -5.9396969619669999 13.6692983715104965 16.3456744503137941   T   T   T
 -1.4849242404917531 11.1783146300942668 16.3456744503137941   T   T   T
 -5.9396969619670035 18.6512658543429595 16.3456744503137941   T   T   T
 -11.8793939239339998 19.9278699313298411  7.9999999999999991   F   F   F
 -8.9095454429505008 19.9278699313298411  7.9999999999999991   F   F   F
 -13.3643181644257520 27.4008211555785337  8.0000000000000000   F   F   F
 -16.3341666454092476 27.4008211555785337  7.9999999999999991   F   F   F
 -14.8492424049175007 24.9098374141623005  7.9999999999999991   F   F   F
 -11.8793939239339998 24.9098374141623005  7.9999999999999991   F   F   F
 -10.3944696834422512 22.4188536727460708  7.9999999999999991   F   F   F
 -13.3643181644257503 22.4188536727460708  7.9999999999999991   F   F   F
 -10.3944696834422494 20.8130623809386712  9.1922392071876828   F   F   F
 -14.8492424049175007 28.2860136051873639  9.1922392071876864   F   F   F
 -10.3944696834422494 25.7950298637711306  9.1922392071876828   F   F   F
 -8.9095454429505008 23.3040461223549009  9.1922392071876828   F   F   F
 -8.9095454429505008 21.6982548305475014 10.3844784143753692   F   F   F
 -11.8793939239340016 21.6982548305475014 10.3844784143753692   F   F   F
 -16.3341666454092511 29.1712060547961904 10.3844784143753692   F   F   F
 -13.3643181644257503 29.1712060547961904 10.3844784143753692   F   F   F
 -11.8793939239339998 26.6802223133799608 10.3844784143753692   F   F   F
 -14.8492424049175007 26.6802223133799608 10.3844784143753692   F   F   F
 -13.3643181644257503 24.1892385719637311 10.3844784143753692   F   F   F
 -10.3944696834422494 24.1892385719637311 10.3844784143753692   F   F   F
 -13.3643181644257503 22.5834472801563280 11.5767176215630556   F   F   F
 -11.8793939239339998 20.0924635387401018 11.5767176215630556   F   F   F
 -13.3643181644257503 27.5654147629887909 11.5767176215630556   F   F   F
 -11.8793939239340016 25.0744310215725577 11.5767176215630556   F   F   F
 -11.8793939239339998 23.4686397297651581 12.7689568287507385   T   T   T
 -8.9095454429505025 23.4686397297651581 12.7689568287507385   T   T   T
 -7.4246212024587530 20.9776559883489284 12.7689568287507385   T   T   T
 -10.3944696834422494 20.9776559883489284 12.7689568287507385   T   T   T
 -14.8492424049174989 28.4506072125976175 12.7689568287507385   T   T   T
 -11.8793939239340034 28.4506072125976175 12.7689568287507385   T   T   T
 -10.3944696834422530 25.9596234711813878 12.7689568287507385   T   T   T
 -13.3643181644257503 25.9596234711813878 12.7689568287507385   T   T   T
 -10.3944696834422530 24.3538321793739883 13.9611960359384248   T   T   T
 -8.9095454429505025 21.8628484379577586 13.9611960359384248   T   T   T
 -16.3341666454092511 29.3357996622064476 13.9611960359384248   T   T   T
 -14.8492424049175007 26.8448159207902179 13.9611960359384248   T   T   T
 -14.8492424049175025 25.2390246289828184 15.1534352431261112   T   T   T
 -11.8793939239339998 25.2390246289828184 15.1534352431261077   T   T   T
 -10.3944696834422512 22.7480408875665887 15.1534352431261112   T   T   T
 -13.3643181644257503 22.7480408875665887 15.1534352431261112   T   T   T
 -11.8793939239340016 20.2570571461503590 15.1534352431261112   T   T   T
 -8.9095454429504990 20.2570571461503590 15.1534352431261077   T   T   T
 -13.3643181644257503 27.7300083703990481 15.1534352431261112   T   T   T
 -16.3341666454092511 27.7300083703990481 15.1534352431261112   T   T   T
 -13.3643181644257503 26.1242170785916485 16.3456744503137941   T   T   T
 -11.8793939239339998 23.6332333371754189 16.3456744503137941   T   T   T
 -7.4246212024587530 21.1422495957591856 16.3456744503137941   T   T   T
 -11.8793939239340034 28.6152008200078782 16.3456744503137941   T   T   T
  5.9396969619669990  0.0000000000000000  7.9999999999999991   F   F   F
  8.9095454429504990  0.0000000000000000  7.9999999999999991   F   F   F
  4.4547727214752477  7.4729512242486917  8.0000000000000000   F   F   F
  1.4849242404917495  7.4729512242486917  7.9999999999999991   F   F   F
  2.9698484809834991  4.9819674828324603  7.9999999999999991   F   F   F
  5.9396969619669981  4.9819674828324603  7.9999999999999991   F   F   F
  7.4246212024587486  2.4909837414162301  7.9999999999999991   F   F   F
  4.4547727214752495  2.4909837414162301  7.9999999999999991   F   F   F
  7.4246212024587486  0.8851924496088295  9.1922392071876828   F   F   F
  2.9698484809834982  8.3581436738575210  9.1922392071876864   F   F   F
  7.4246212024587486  5.8671599324412904  9.1922392071876828   F   F   F
  8.9095454429504990  3.3761761910250598  9.1922392071876828   F   F   F
  8.9095454429504990  1.7703848992176590 10.3844784143753692   F   F   F
  5.9396969619669981  1.7703848992176592 10.3844784143753692   F   F   F
  1.4849242404917478  9.2433361234663494 10.3844784143753692   F   F   F
  4.4547727214752477  9.2433361234663494 10.3844784143753692   F   F   F
  5.9396969619669981  6.7523523820501197 10.3844784143753692   F   F   F
  2.9698484809834977  6.7523523820501197 10.3844784143753692   F   F   F
  4.4547727214752477  4.2613686406338891 10.3844784143753692   F   F   F
  7.4246212024587486  4.2613686406338891 10.3844784143753692   F   F   F
  4.4547727214752477  2.6555773488264887 11.5767176215630556   F   F   F
  5.9396969619669990  0.1645936074102592 11.5767176215630556   F   F   F
  4.4547727214752495  7.6375448316589489 11.5767176215630556   F   F   F
  5.9396969619669981  5.1465610902427184 11.5767176215630556   F   F   F
  5.9396969619669990  3.5407697984353179 12.7689568287507385   T   T   T
  8.9095454429504954  3.5407697984353179 12.7689568287507385   T   T   T
 10.3944696834422459  1.0497860570190889 12.7689568287507385   T   T   T
  7.4246212024587486  1.0497860570190889 12.7689568287507385   T   T   T
  2.9698484809834995  8.5227372812677782 12.7689568287507385   T   T   T
  5.9396969619669964  8.5227372812677782 12.7689568287507385   T   T   T
  7.4246212024587468  6.0317535398515485 12.7689568287507385   T   T   T
  4.4547727214752495  6.0317535398515485 12.7689568287507385   T   T   T
  7.4246212024587450  4.4259622480441472 13.9611960359384248   T   T   T
  8.9095454429504972  1.9349785066279188 13.9611960359384248   T   T   T
  1.4849242404917478  9.4079297308766083 13.9611960359384248   T   T   T
  2.9698484809834982  6.9169459894603778 13.9611960359384248   T   T   T
  2.9698484809834969  5.3111546976529773 15.1534352431261112   T   T   T
  5.9396969619669990  5.3111546976529773 15.1534352431261077   T   T   T
  7.4246212024587486  2.8201709562367485 15.1534352431261112   T   T   T
  4.4547727214752495  2.8201709562367485 15.1534352431261112   T   T   T
  5.9396969619669973  0.3291872148205162 15.1534352431261112   T   T   T
  8.9095454429504990  0.3291872148205162 15.1534352431261077   T   T   T
  4.4547727214752495  7.8021384390692079 15.1534352431261112   T   T   T
  1.4849242404917469  7.8021384390692079 15.1534352431261112   T   T   T
  4.4547727214752477  6.1963471472618075 16.3456744503137941   T   T   T
  5.9396969619669990  3.7053634058455760 16.3456744503137941   T   T   T
 10.3944696834422459  1.2143796644293461 16.3456744503137941   T   T   T
  5.9396969619669955  8.6873308886780372 16.3456744503137941   T   T   T
 -0.0000000000000009  9.9639349656649205  7.9999999999999991   F   F   F
  2.9698484809834982  9.9639349656649205  7.9999999999999991   F   F   F
 -1.4849242404917524 17.4368861899136114  8.0000000000000000   F   F   F
 -4.4547727214752504 17.4368861899136114  7.9999999999999991   F   F   F
 -2.9698484809835008 14.9459024484973817  7.9999999999999991   F   F   F
 -0.0000000000000013 14.9459024484973817  7.9999999999999991   F   F   F
  1.4849242404917482 12.4549187070811502  7.9999999999999991   F   F   F
 -1.4849242404917509 12.4549187070811502  7.9999999999999991   F   F   F
  1.4849242404917489 10.8491274152737507  9.1922392071876828   F   F   F
 -2.9698484809835017 18.3220786395224415  9.1922392071876864   F   F   F
  1.4849242404917486 15.8310948981062118  9.1922392071876828   F   F   F
  2.9698484809834986 13.3401111566899804  9.1922392071876828   F   F   F
  2.9698484809834986 11.7343198648825791 10.3844784143753692   F   F   F
 -0.0000000000000022 11.7343198648825791 10.3844784143753692   F   F   F
 -4.4547727214752522 19.2072710891312681 10.3844784143753692   F   F   F
 -1.4849242404917518 19.2072710891312681 10.3844784143753692   F   F   F
 -0.0000000000000017 16.7162873477150384 10.3844784143753692   F   F   F
 -2.9698484809835022 16.7162873477150384 10.3844784143753692   F   F   F
 -1.4849242404917520 14.2253036062988087 10.3844784143753692   F   F   F
  1.4849242404917486 14.2253036062988087 10.3844784143753692   F   F   F
 -1.4849242404917520 12.6195123144914092 11.5767176215630556   F   F   F
 -0.0000000000000009 10.1285285730751795 11.5767176215630556   F   F   F
 -1.4849242404917504 17.6014797973238686 11.5767176215630556   F   F   F
 -0.0000000000000019 15.1104960559076389 11.5767176215630556   F   F   F
 -0.0000000000000005 13.5047047641002393 12.7689568287507385   T   T   T
  2.9698484809834964 13.5047047641002393 12.7689568287507385   T   T   T
  4.4547727214752459 11.0137210226840097 12.7689568287507385   T   T   T
  1.4849242404917489 11.0137210226840097 12.7689568287507385   T   T   T
 -2.9698484809835004 18.4866722469326987 12.7689568287507385   T   T   T
 -0.0000000000000036 18.4866722469326987 12.7689568287507385   T   T   T
  1.4849242404917464 15.9956885055164690 12.7689568287507385   T   T   T
 -1.4849242404917504 15.9956885055164690 12.7689568287507385   T   T   T
  1.4849242404917455 14.3898972137090677 13.9611960359384248   T   T   T
  2.9698484809834973 11.8989134722928398 13.9611960359384248   T   T   T
 -4.4547727214752522 19.3718646965415289 13.9611960359384248   T   T   T
 -2.9698484809835017 16.8808809551252992 13.9611960359384248   T   T   T
 -2.9698484809835031 15.2750896633178979 15.1534352431261112   T   T   T
 -0.0000000000000008 15.2750896633178979 15.1534352431261077   T   T   T
  1.4849242404917484 12.7841059219016699 15.1534352431261112   T   T   T
 -1.4849242404917509 12.7841059219016699 15.1534352431261112   T   T   T
 -0.0000000000000022 10.2931221804854367 15.1534352431261112   T   T   T
  2.9698484809835000 10.2931221804854367 15.1534352431261077   T   T   T
 -1.4849242404917509 17.7660734047341293 15.1534352431261112   T   T   T
 -4.4547727214752531 17.7660734047341293 15.1534352431261112   T   T   T
 -1.4849242404917518 16.1602821129267298 16.3456744503137941   T   T   T
 -0.0000000000000010 13.6692983715104965 16.3456744503137941   T   T   T
  4.4547727214752459 11.1783146300942668 16.3456744503137941   T   T   T
 -0.0000000000000048 18.6512658543429595 16.3456744503137941   T   T   T
 -5.9396969619670008 19.9278699313298411  7.9999999999999991   F   F   F
 -2.9698484809835017 19.9278699313298411  7.9999999999999991   F   F   F
 -7.4246212024587521 27.4008211555785337  8.0000000000000000   F   F   F
 -10.3944696834422494 27.4008211555785337  7.9999999999999991   F   F   F
 -8.9095454429505008 24.9098374141623005  7.9999999999999991   F   F   F
 -5.9396969619670017 24.9098374141623005  7.9999999999999991   F   F   F
 -4.4547727214752513 22.4188536727460708  7.9999999999999991   F   F   F
 -7.4246212024587503 22.4188536727460708  7.9999999999999991   F   F   F
 -4.4547727214752513 20.8130623809386712  9.1922392071876828   F   F   F
 -8.9095454429505025 28.2860136051873639  9.1922392071876864   F   F   F
 -4.4547727214752513 25.7950298637711306  9.1922392071876828   F   F   F
 -2.9698484809835013 23.3040461223549009  9.1922392071876828   F   F   F
 -2.9698484809835013 21.6982548305475014 10.3844784143753692   F   F   F
 -5.9396969619670017 21.6982548305475014 10.3844784143753692   F   F   F
 -10.3944696834422530 29.1712060547961904 10.3844784143753692   F   F   F
 -7.4246212024587521 29.1712060547961904 10.3844784143753692   F   F   F
 -5.9396969619670017 26.6802223133799608 10.3844784143753692   F   F   F
 -8.9095454429505025 26.6802223133799608 10.3844784143753692   F   F   F
 -7.4246212024587521 24.1892385719637311 10.3844784143753692   F   F   F
 -4.4547727214752513 24.1892385719637311 10.3844784143753692   F   F   F
 -7.4246212024587521 22.5834472801563280 11.5767176215630556   F   F   F
 -5.9396969619670008 20.0924635387401018 11.5767176215630556   F   F   F
 -7.4246212024587503 27.5654147629887909 11.5767176215630556   F   F   F
 -5.9396969619670017 25.0744310215725577 11.5767176215630556   F   F   F
 -5.9396969619670008 23.4686397297651581 12.7689568287507385   T   T   T
 -2.9698484809835035 23.4686397297651581 12.7689568287507385   T   T   T
 -1.4849242404917540 20.9776559883489284 12.7689568287507385   T   T   T
 -4.4547727214752513 20.9776559883489284 12.7689568287507385   T   T   T
 -8.9095454429505008 28.4506072125976175 12.7689568287507385   T   T   T
 -5.9396969619670035 28.4506072125976175 12.7689568287507385   T   T   T
 -4.4547727214752531 25.9596234711813878 12.7689568287507385   T   T   T
 -7.4246212024587503 25.9596234711813878 12.7689568287507385   T   T   T
 -4.4547727214752548 24.3538321793739883 13.9611960359384248   T   T   T
 -2.9698484809835026 21.8628484379577586 13.9611960359384248   T   T   T
 -10.3944696834422530 29.3357996622064476 13.9611960359384248   T   T   T
 -8.9095454429505025 26.8448159207902179 13.9611960359384248   T   T   T
 -8.9095454429505025 25.2390246289828184 15.1534352431261112   T   T   T
 -5.9396969619670008 25.2390246289828184 15.1534352431261077   T   T   T
 -4.4547727214752513 22.7480408875665887 15.1534352431261112   T   T   T
 -7.4246212024587503 22.7480408875665887 15.1534352431261112   T   T   T
 -5.9396969619670026 20.2570571461503590 15.1534352431261112   T   T   T
 -2.9698484809835000 20.2570571461503590 15.1534352431261077   T   T   T
 -7.4246212024587503 27.7300083703990481 15.1534352431261112   T   T   T
 -10.3944696834422530 27.7300083703990481 15.1534352431261112   T   T   T
 -7.4246212024587521 26.1242170785916485 16.3456744503137941   T   T   T
 -5.9396969619670008 23.6332333371754189 16.3456744503137941   T   T   T
 -1.4849242404917540 21.1422495957591856 16.3456744503137941   T   T   T
 -5.9396969619670044 28.6152008200078782 16.3456744503137941   T   T   T
 11.8793939239339981  0.0000000000000000  7.9999999999999991   F   F   F
 14.8492424049174971  0.0000000000000000  7.9999999999999991   F   F   F
 10.3944696834422459  7.4729512242486917  8.0000000000000000   F   F   F
  7.4246212024587486  7.4729512242486917  7.9999999999999991   F   F   F
  8.9095454429504990  4.9819674828324603  7.9999999999999991   F   F   F
 11.8793939239339981  4.9819674828324603  7.9999999999999991   F   F   F
 13.3643181644257467  2.4909837414162301  7.9999999999999991   F   F   F
 10.3944696834422476  2.4909837414162301  7.9999999999999991   F   F   F
 13.3643181644257485  0.8851924496088295  9.1922392071876828   F   F   F
  8.9095454429504972  8.3581436738575210  9.1922392071876864   F   F   F
 13.3643181644257467  5.8671599324412904  9.1922392071876828   F   F   F
 14.8492424049174971  3.3761761910250598  9.1922392071876828   F   F   F
 14.8492424049174971  1.7703848992176590 10.3844784143753692   F   F   F
 11.8793939239339963  1.7703848992176592 10.3844784143753692   F   F   F
  7.4246212024587468  9.2433361234663494 10.3844784143753692   F   F   F
 10.3944696834422476  9.2433361234663494 10.3844784143753692   F   F   F
 11.8793939239339981  6.7523523820501197 10.3844784143753692   F   F   F
  8.9095454429504972  6.7523523820501197 10.3844784143753692   F   F   F
 10.3944696834422476  4.2613686406338891 10.3844784143753692   F   F   F
 13.3643181644257467  4.2613686406338891 10.3844784143753692   F   F   F
 10.3944696834422476  2.6555773488264887 11.5767176215630556   F   F   F
 11.8793939239339981  0.1645936074102592 11.5767176215630556   F   F   F
 10.3944696834422494  7.6375448316589489 11.5767176215630556   F   F   F
 11.8793939239339963  5.1465610902427184 11.5767176215630556   F   F   F
 11.8793939239339981  3.5407697984353179 12.7689568287507385   T   T   T
 14.8492424049174954  3.5407697984353179 12.7689568287507385   T   T   T
 16.3341666454092440  1.0497860570190889 12.7689568287507385   T   T   T
 13.3643181644257485  1.0497860570190889 12.7689568287507385   T   T   T
  8.9095454429504990  8.5227372812677782 12.7689568287507385   T   T   T
 11.8793939239339945  8.5227372812677782 12.7689568287507385   T   T   T
 13.3643181644257449  6.0317535398515485 12.7689568287507385   T   T   T
 10.3944696834422494  6.0317535398515485 12.7689568287507385   T   T   T
 13.3643181644257449  4.4259622480441472 13.9611960359384248   T   T   T
 14.8492424049174971  1.9349785066279188 13.9611960359384248   T   T   T
  7.4246212024587468  9.4079297308766083 13.9611960359384248   T   T   T
  8.9095454429504972  6.9169459894603778 13.9611960359384248   T   T   T
  8.9095454429504954  5.3111546976529773 15.1534352431261112   T   T   T
 11.8793939239339981  5.3111546976529773 15.1534352431261077   T   T   T
 13.3643181644257467  2.8201709562367485 15.1534352431261112   T   T   T
 10.3944696834422476  2.8201709562367485 15.1534352431261112   T   T   T
 11.8793939239339963  0.3291872148205162 15.1534352431261112   T   T   T
 14.8492424049174989  0.3291872148205162 15.1534352431261077   T   T   T
 10.3944696834422476  7.8021384390692079 15.1534352431261112   T   T   T
  7.4246212024587459  7.8021384390692079 15.1534352431261112   T   T   T
 10.3944696834422476  6.1963471472618075 16.3456744503137941   T   T   T
 11.8793939239339981  3.7053634058455760 16.3456744503137941   T   T   T
 16.3341666454092440  1.2143796644293461 16.3456744503137941   T   T   T
 11.8793939239339945  8.6873308886780372 16.3456744503137941   T   T   T
  5.9396969619669981  9.9639349656649205  7.9999999999999991   F   F   F
  8.9095454429504972  9.9639349656649205  7.9999999999999991   F   F   F
  4.4547727214752468 17.4368861899136114  8.0000000000000000   F   F   F
  1.4849242404917486 17.4368861899136114  7.9999999999999991   F   F   F
  2.9698484809834982 14.9459024484973817  7.9999999999999991   F   F   F
  5.9396969619669981 14.9459024484973817  7.9999999999999991   F   F   F
  7.4246212024587468 12.4549187070811502  7.9999999999999991   F   F   F
  4.4547727214752477 12.4549187070811502  7.9999999999999991   F   F   F
  7.4246212024587477 10.8491274152737507  9.1922392071876828   F   F   F
  2.9698484809834973 18.3220786395224415  9.1922392071876864   F   F   F
  7.4246212024587477 15.8310948981062118  9.1922392071876828   F   F   F
  8.9095454429504972 13.3401111566899804  9.1922392071876828   F   F   F
  8.9095454429504972 11.7343198648825791 10.3844784143753692   F   F   F
  5.9396969619669973 11.7343198648825791 10.3844784143753692   F   F   F
  1.4849242404917469 19.2072710891312681 10.3844784143753692   F   F   F
  4.4547727214752477 19.2072710891312681 10.3844784143753692   F   F   F
  5.9396969619669973 16.7162873477150384 10.3844784143753692   F   F   F
  2.9698484809834969 16.7162873477150384 10.3844784143753692   F   F   F
  4.4547727214752468 14.2253036062988087 10.3844784143753692   F   F   F
  7.4246212024587477 14.2253036062988087 10.3844784143753692   F   F   F
  4.4547727214752468 12.6195123144914092 11.5767176215630556   F   F   F
  5.9396969619669981 10.1285285730751795 11.5767176215630556   F   F   F
  4.4547727214752486 17.6014797973238686 11.5767176215630556   F   F   F
  5.9396969619669973 15.1104960559076389 11.5767176215630556   F   F   F
  5.9396969619669981 13.5047047641002393 12.7689568287507385   T   T   T
  8.9095454429504954 13.5047047641002393 12.7689568287507385   T   T   T
 10.3944696834422459 11.0137210226840097 12.7689568287507385   T   T   T
  7.4246212024587477 11.0137210226840097 12.7689568287507385   T   T   T
  2.9698484809834986 18.4866722469326987 12.7689568287507385   T   T   T
  5.9396969619669955 18.4866722469326987 12.7689568287507385   T   T   T
  7.4246212024587450 15.9956885055164690 12.7689568287507385   T   T   T
  4.4547727214752486 15.9956885055164690 12.7689568287507385   T   T   T
  7.4246212024587450 14.3898972137090677 13.9611960359384248   T   T   T
  8.9095454429504954 11.8989134722928398 13.9611960359384248   T   T   T
  1.4849242404917469 19.3718646965415289 13.9611960359384248   T   T   T
  2.9698484809834973 16.8808809551252992 13.9611960359384248   T   T   T
  2.9698484809834960 15.2750896633178979 15.1534352431261112   T   T   T
  5.9396969619669981 15.2750896633178979 15.1534352431261077   T   T   T
  7.4246212024587477 12.7841059219016699 15.1534352431261112   T   T   T
  4.4547727214752477 12.7841059219016699 15.1534352431261112   T   T   T
  5.9396969619669964 10.2931221804854367 15.1534352431261112   T   T   T
  8.9095454429504990 10.2931221804854367 15.1534352431261077   T   T   T
  4.4547727214752477 17.7660734047341293 15.1534352431261112   T   T   T
  1.4849242404917460 17.7660734047341293 15.1534352431261112   T   T   T
  4.4547727214752477 16.1602821129267298 16.3456744503137941   T   T   T
  5.9396969619669981 13.6692983715104965 16.3456744503137941   T   T   T
 10.3944696834422459 11.1783146300942668 16.3456744503137941   T   T   T
  5.9396969619669946 18.6512658543429595 16.3456744503137941   T   T   T
 -0.0000000000000018 19.9278699313298411  7.9999999999999991   F   F   F
  2.9698484809834973 19.9278699313298411  7.9999999999999991   F   F   F
 -1.4849242404917533 27.4008211555785337  8.0000000000000000   F   F   F
 -4.4547727214752513 27.4008211555785337  7.9999999999999991   F   F   F
 -2.9698484809835017 24.9098374141623005  7.9999999999999991   F   F   F
 -0.0000000000000022 24.9098374141623005  7.9999999999999991   F   F   F
  1.4849242404917473 22.4188536727460708  7.9999999999999991   F   F   F
 -1.4849242404917518 22.4188536727460708  7.9999999999999991   F   F   F
  1.4849242404917480 20.8130623809386712  9.1922392071876828   F   F   F
 -2.9698484809835026 28.2860136051873639  9.1922392071876864   F   F   F
  1.4849242404917478 25.7950298637711306  9.1922392071876828   F   F   F
  2.9698484809834977 23.3040461223549009  9.1922392071876828   F   F   F
  2.9698484809834977 21.6982548305475014 10.3844784143753692   F   F   F
 -0.0000000000000031 21.6982548305475014 10.3844784143753692   F   F   F
 -4.4547727214752531 29.1712060547961904 10.3844784143753692   F   F   F
 -1.4849242404917526 29.1712060547961904 10.3844784143753692   F   F   F
 -0.0000000000000026 26.6802223133799608 10.3844784143753692   F   F   F
 -2.9698484809835031 26.6802223133799608 10.3844784143753692   F   F   F
 -1.4849242404917529 24.1892385719637311 10.3844784143753692   F   F   F
  1.4849242404917478 24.1892385719637311 10.3844784143753692   F   F   F
 -1.4849242404917529 22.5834472801563280 11.5767176215630556   F   F   F
 -0.0000000000000018 20.0924635387401018 11.5767176215630556   F   F   F
 -1.4849242404917513 27.5654147629887909 11.5767176215630556   F   F   F
 -0.0000000000000028 25.0744310215725577 11.5767176215630556   F   F   F
 -0.0000000000000014 23.4686397297651581 12.7689568287507385   T   T   T
  2.9698484809834955 23.4686397297651581 12.7689568287507385   T   T   T
  4.4547727214752451 20.9776559883489284 12.7689568287507385   T   T   T
  1.4849242404917480 20.9776559883489284 12.7689568287507385   T   T   T
 -2.9698484809835013 28.4506072125976175 12.7689568287507385   T   T   T
 -0.0000000000000045 28.4506072125976175 12.7689568287507385   T   T   T
  1.4849242404917455 25.9596234711813878 12.7689568287507385   T   T   T
 -1.4849242404917513 25.9596234711813878 12.7689568287507385   T   T   T
  1.4849242404917447 24.3538321793739883 13.9611960359384248   T   T   T
  2.9698484809834964 21.8628484379577586 13.9611960359384248   T   T   T
 -4.4547727214752531 29.3357996622064476 13.9611960359384248   T   T   T
 -2.9698484809835026 26.8448159207902179 13.9611960359384248   T   T   T
 -2.9698484809835040 25.2390246289828184 15.1534352431261112   T   T   T
 -0.0000000000000017 25.2390246289828184 15.1534352431261077   T   T   T
  1.4849242404917475 22.7480408875665887 15.1534352431261112   T   T   T
 -1.4849242404917518 22.7480408875665887 15.1534352431261112   T   T   T
 -0.0000000000000031 20.2570571461503590 15.1534352431261112   T   T   T
  2.9698484809834991 20.2570571461503590 15.1534352431261077   T   T   T
 -1.4849242404917518 27.7300083703990481 15.1534352431261112   T   T   T
 -4.4547727214752539 27.7300083703990481 15.1534352431261112   T   T   T
 -1.4849242404917526 26.1242170785916485 16.3456744503137941   T   T   T
 -0.0000000000000019 23.6332333371754189 16.3456744503137941   T   T   T
  4.4547727214752451 21.1422495957591856 16.3456744503137941   T   T   T
 -0.0000000000000057 28.6152008200078782 16.3456744503137941   T   T   T
