Mo B  Mo B  Mo B  Mo B  Mo B  Mo B  Mo B  Mo B  Mo B  Mo B  Mo B  Mo B  Mo B  Mo B  Mo B  Mo B 
 1.0000000000000000
     8.7822662223369203    0.0000000000000000    0.0000000000000000
     0.0000000000000000   33.9399999999999977    0.0000000000000000
     0.0000000000000000    0.0000000000000000   23.6844829445448077
 Mo  B   Mo  B   Mo  B   Mo  B   Mo  B   Mo  B   Mo  B   Mo  B   Mo  B   Mo  B   Mo  B   Mo  B   Mo  B   Mo  B   Mo  B   Mo  B  
   8   8   8   8   8   8   8   8   8   8   8   8   8   8   8   8   8   8   8   8   8   8   8   8   8   8   8   8   8   8   8   8
Selective dynamics
Cartesian
  1.0977832777921150  7.5855899999999998  9.0977832777921144   F   F   F
  2.1955665555842301 11.8280899999999978  8.0000000000000000   F   F   F
  0.0000000000000000 13.6269100000000005  8.0000000000000000   F   F   F
  1.0977832777921150  0.8994099999999987  9.0977832777921144   F   F   F
  3.2933498333763458 16.0705899999999993  9.0977832777921144   F   F   F
  3.2933498333763458  9.3844099999999990  9.0977832777921144   F   F   F
  2.1955665555842301  5.1419100000000002  8.0000000000000000   F   F   F
  0.0000000000000000  3.3430899999999988  8.0000000000000000   F   F   F
  1.0977832777921150 10.2159399999999998  9.0977832777921144   F   F   F
  2.1955665555842301 14.4584399999999995  8.0000000000000000   F   F   F
  0.0000000000000000 10.9965600000000023  8.0000000000000000   F   F   F
  1.0977832777921150 15.2390599999999949  9.0977832777921144   F   F   F
  3.2933498333763458  1.7309399999999995  9.0977832777921144   F   F   F
  3.2933498333763458  6.7540599999999982  9.0977832777921144   F   F   F
  2.1955665555842301  2.5115599999999985  8.0000000000000000   F   F   F
  0.0000000000000000  5.9734399999999992  8.0000000000000000   F   F   F
  3.2933498333763458  7.5855899999999998 11.2933498333763467   F   F   F
  0.0000000000000000 11.8280899999999978 10.1955665555842305   F   F   F
  2.1955665555842301 13.6269100000000005 10.1955665555842305   F   F   F
  3.2933498333763458  0.8994099999999985 11.2933498333763467   F   F   F
  1.0977832777921150 16.0705899999999993 11.2933498333763449   F   F   F
  1.0977832777921150  9.3844099999999990 11.2933498333763449   F   F   F
  0.0000000000000000  5.1419100000000002 10.1955665555842305   F   F   F
  2.1955665555842301  3.3430899999999988 10.1955665555842305   F   F   F
  3.2933498333763458 10.2159399999999998 11.2933498333763467   F   F   F
  0.0000000000000000 14.4584399999999995 10.1955665555842305   F   F   F
  2.1955665555842301 10.9965600000000023 10.1955665555842305   F   F   F
  3.2933498333763458 15.2390599999999949 11.2933498333763467   F   F   F
  1.0977832777921150  1.7309399999999993 11.2933498333763449   F   F   F
  1.0977832777921150  6.7540599999999982 11.2933498333763449   F   F   F
  0.0000000000000000  2.5115599999999985 10.1955665555842305   F   F   F
  2.1955665555842301  5.9734399999999992 10.1955665555842305   F   F   F
  1.0977832777921150  7.5855899999999998 13.4889163889605754   T   T   T
  2.1955665555842310 11.8280899999999978 12.3911331111684611   T   T   T
  0.0000000000000000 13.6269100000000005 12.3911331111684611   T   T   T
  1.0977832777921150  0.8994099999999984 13.4889163889605754   T   T   T
  3.2933498333763462 16.0705899999999993 13.4889163889605754   T   T   T
  3.2933498333763462  9.3844099999999990 13.4889163889605754   T   T   T
  2.1955665555842310  5.1419100000000002 12.3911331111684611   T   T   T
  0.0000000000000000  3.3430899999999983 12.3911331111684611   T   T   T
  1.0977832777921150 10.2159399999999998 13.4889163889605754   T   T   T
  2.1955665555842310 14.4584399999999995 12.3911331111684611   T   T   T
  0.0000000000000000 10.9965600000000023 12.3911331111684611   T   T   T
  1.0977832777921150 15.2390599999999949 13.4889163889605754   T   T   T
  3.2933498333763462  1.7309399999999990 13.4889163889605754   T   T   T
  3.2933498333763462  6.7540599999999982 13.4889163889605754   T   T   T
  2.1955665555842310  2.5115599999999980 12.3911331111684611   T   T   T
  0.0000000000000000  5.9734399999999992 12.3911331111684611   T   T   T
  3.2933498333763462  7.5855899999999989 15.6844829445448077   T   T   T
  0.0000000000000000 11.8280899999999978 14.5866996667526916   T   T   T
  2.1955665555842310 13.6269100000000005 14.5866996667526916   T   T   T
  3.2933498333763462  0.8994099999999982 15.6844829445448077   T   T   T
  1.0977832777921150 16.0705899999999993 15.6844829445448042   T   T   T
  1.0977832777921150  9.3844099999999990 15.6844829445448042   T   T   T
  0.0000000000000000  5.1419099999999993 14.5866996667526916   T   T   T
  2.1955665555842310  3.3430899999999983 14.5866996667526916   T   T   T
  3.2933498333763462 10.2159399999999998 15.6844829445448077   T   T   T
  0.0000000000000000 14.4584399999999995 14.5866996667526916   T   T   T
  2.1955665555842310 10.9965600000000023 14.5866996667526916   T   T   T
  3.2933498333763462 15.2390599999999949 15.6844829445448077   T   T   T
  1.0977832777921150  1.7309399999999988 15.6844829445448042   T   T   T
  1.0977832777921150  6.7540599999999973 15.6844829445448042   T   T   T
  0.0000000000000000  2.5115599999999980 14.5866996667526916   T   T   T
  2.1955665555842310  5.9734399999999983 14.5866996667526916   T   T   T
  1.0977832777921150 24.5555899999999987  9.0977832777921144   F   F   F
  2.1955665555842301 28.7980899999999949  8.0000000000000000   F   F   F
  0.0000000000000000 30.5969100000000012  8.0000000000000000   F   F   F
  1.0977832777921150 17.8694099999999985  9.0977832777921144   F   F   F
  3.2933498333763458 33.0405899999999946  9.0977832777921144   F   F   F
  3.2933498333763458 26.3544099999999979  9.0977832777921144   F   F   F
  2.1955665555842301 22.1119099999999982  8.0000000000000000   F   F   F
  0.0000000000000000 20.3130899999999990  8.0000000000000000   F   F   F
  1.0977832777921150 27.1859399999999987  9.0977832777921144   F   F   F
  2.1955665555842301 31.4284399999999984  8.0000000000000000   F   F   F
  0.0000000000000000 27.9665600000000012  8.0000000000000000   F   F   F
  1.0977832777921150 32.2090599999999938  9.0977832777921144   F   F   F
  3.2933498333763458 18.7009399999999992  9.0977832777921144   F   F   F
  3.2933498333763458 23.7240599999999979  9.0977832777921144   F   F   F
  2.1955665555842301 19.4815599999999982  8.0000000000000000   F   F   F
  0.0000000000000000 22.9434399999999989  8.0000000000000000   F   F   F
  3.2933498333763458 24.5555899999999987 11.2933498333763467   F   F   F
  0.0000000000000000 28.7980899999999949 10.1955665555842305   F   F   F
  2.1955665555842301 30.5969100000000012 10.1955665555842305   F   F   F
  3.2933498333763458 17.8694099999999985 11.2933498333763467   F   F   F
  1.0977832777921150 33.0405899999999946 11.2933498333763449   F   F   F
  1.0977832777921150 26.3544099999999979 11.2933498333763449   F   F   F
  0.0000000000000000 22.1119099999999982 10.1955665555842305   F   F   F
  2.1955665555842301 20.3130899999999990 10.1955665555842305   F   F   F
  3.2933498333763458 27.1859399999999987 11.2933498333763467   F   F   F
  0.0000000000000000 31.4284399999999984 10.1955665555842305   F   F   F
  2.1955665555842301 27.9665600000000012 10.1955665555842305   F   F   F
  3.2933498333763458 32.2090599999999938 11.2933498333763467   F   F   F
  1.0977832777921150 18.7009399999999992 11.2933498333763449   F   F   F
  1.0977832777921150 23.7240599999999979 11.2933498333763449   F   F   F
  0.0000000000000000 19.4815599999999982 10.1955665555842305   F   F   F
  2.1955665555842301 22.9434399999999989 10.1955665555842305   F   F   F
  1.0977832777921150 24.5555899999999987 13.4889163889605754   T   T   T
  2.1955665555842310 28.7980899999999949 12.3911331111684611   T   T   T
  0.0000000000000000 30.5969100000000012 12.3911331111684611   T   T   T
  1.0977832777921150 17.8694099999999985 13.4889163889605754   T   T   T
  3.2933498333763462 33.0405899999999946 13.4889163889605754   T   T   T
  3.2933498333763462 26.3544099999999979 13.4889163889605754   T   T   T
  2.1955665555842310 22.1119099999999982 12.3911331111684611   T   T   T
  0.0000000000000000 20.3130899999999954 12.3911331111684611   T   T   T
  1.0977832777921150 27.1859399999999987 13.4889163889605754   T   T   T
  2.1955665555842310 31.4284399999999984 12.3911331111684611   T   T   T
  0.0000000000000000 27.9665600000000012 12.3911331111684611   T   T   T
  1.0977832777921150 32.2090599999999938 13.4889163889605754   T   T   T
  3.2933498333763462 18.7009399999999992 13.4889163889605754   T   T   T
  3.2933498333763462 23.7240599999999979 13.4889163889605754   T   T   T
  2.1955665555842310 19.4815599999999982 12.3911331111684611   T   T   T
  0.0000000000000000 22.9434399999999989 12.3911331111684611   T   T   T
  3.2933498333763462 24.5555899999999987 15.6844829445448077   T   T   T
  0.0000000000000000 28.7980899999999949 14.5866996667526916   T   T   T
  2.1955665555842310 30.5969100000000012 14.5866996667526916   T   T   T
  3.2933498333763462 17.8694099999999985 15.6844829445448077   T   T   T
  1.0977832777921150 33.0405899999999946 15.6844829445448042   T   T   T
  1.0977832777921150 26.3544099999999979 15.6844829445448042   T   T   T
  0.0000000000000000 22.1119099999999982 14.5866996667526916   T   T   T
  2.1955665555842310 20.3130899999999954 14.5866996667526916   T   T   T
  3.2933498333763462 27.1859399999999987 15.6844829445448077   T   T   T
  0.0000000000000000 31.4284399999999984 14.5866996667526916   T   T   T
  2.1955665555842310 27.9665600000000012 14.5866996667526916   T   T   T
  3.2933498333763462 32.2090599999999938 15.6844829445448077   T   T   T
  1.0977832777921150 18.7009399999999992 15.6844829445448042   T   T   T
  1.0977832777921150 23.7240599999999944 15.6844829445448042   T   T   T
  0.0000000000000000 19.4815599999999982 14.5866996667526916   T   T   T
  2.1955665555842310 22.9434399999999954 14.5866996667526916   T   T   T
  5.4889163889605754  7.5855899999999998  9.0977832777921144   F   F   F
  6.5866996667526898 11.8280899999999978  8.0000000000000000   F   F   F
  4.3911331111684602 13.6269100000000005  8.0000000000000000   F   F   F
  5.4889163889605754  0.8994099999999987  9.0977832777921144   F   F   F
  7.6844829445448060 16.0705899999999993  9.0977832777921144   F   F   F
  7.6844829445448060  9.3844099999999990  9.0977832777921144   F   F   F
  6.5866996667526898  5.1419100000000002  8.0000000000000000   F   F   F
  4.3911331111684602  3.3430899999999988  8.0000000000000000   F   F   F
  5.4889163889605754 10.2159399999999998  9.0977832777921144   F   F   F
  6.5866996667526898 14.4584399999999995  8.0000000000000000   F   F   F
  4.3911331111684602 10.9965600000000023  8.0000000000000000   F   F   F
  5.4889163889605754 15.2390599999999949  9.0977832777921144   F   F   F
  7.6844829445448060  1.7309399999999995  9.0977832777921144   F   F   F
  7.6844829445448060  6.7540599999999982  9.0977832777921144   F   F   F
  6.5866996667526898  2.5115599999999985  8.0000000000000000   F   F   F
  4.3911331111684602  5.9734399999999992  8.0000000000000000   F   F   F
  7.6844829445448060  7.5855899999999998 11.2933498333763467   F   F   F
  4.3911331111684602 11.8280899999999978 10.1955665555842305   F   F   F
  6.5866996667526898 13.6269100000000005 10.1955665555842305   F   F   F
  7.6844829445448060  0.8994099999999985 11.2933498333763467   F   F   F
  5.4889163889605754 16.0705899999999993 11.2933498333763449   F   F   F
  5.4889163889605754  9.3844099999999990 11.2933498333763449   F   F   F
  4.3911331111684602  5.1419100000000002 10.1955665555842305   F   F   F
  6.5866996667526898  3.3430899999999988 10.1955665555842305   F   F   F
  7.6844829445448060 10.2159399999999998 11.2933498333763467   F   F   F
  4.3911331111684602 14.4584399999999995 10.1955665555842305   F   F   F
  6.5866996667526898 10.9965600000000023 10.1955665555842305   F   F   F
  7.6844829445448060 15.2390599999999949 11.2933498333763467   F   F   F
  5.4889163889605754  1.7309399999999993 11.2933498333763449   F   F   F
  5.4889163889605754  6.7540599999999982 11.2933498333763449   F   F   F
  4.3911331111684602  2.5115599999999985 10.1955665555842305   F   F   F
  6.5866996667526898  5.9734399999999992 10.1955665555842305   F   F   F
  5.4889163889605754  7.5855899999999998 13.4889163889605754   T   T   T
  6.5866996667526916 11.8280899999999978 12.3911331111684611   T   T   T
  4.3911331111684602 13.6269100000000005 12.3911331111684611   T   T   T
  5.4889163889605754  0.8994099999999984 13.4889163889605754   T   T   T
  7.6844829445448060 16.0705899999999993 13.4889163889605754   T   T   T
  7.6844829445448060  9.3844099999999990 13.4889163889605754   T   T   T
  6.5866996667526916  5.1419100000000002 12.3911331111684611   T   T   T
  4.3911331111684602  3.3430899999999983 12.3911331111684611   T   T   T
  5.4889163889605754 10.2159399999999998 13.4889163889605754   T   T   T
  6.5866996667526916 14.4584399999999995 12.3911331111684611   T   T   T
  4.3911331111684602 10.9965600000000023 12.3911331111684611   T   T   T
  5.4889163889605754 15.2390599999999949 13.4889163889605754   T   T   T
  7.6844829445448060  1.7309399999999990 13.4889163889605754   T   T   T
  7.6844829445448060  6.7540599999999982 13.4889163889605754   T   T   T
  6.5866996667526916  2.5115599999999980 12.3911331111684611   T   T   T
  4.3911331111684602  5.9734399999999992 12.3911331111684611   T   T   T
  7.6844829445448060  7.5855899999999989 15.6844829445448077   T   T   T
  4.3911331111684602 11.8280899999999978 14.5866996667526916   T   T   T
  6.5866996667526916 13.6269100000000005 14.5866996667526916   T   T   T
  7.6844829445448060  0.8994099999999982 15.6844829445448077   T   T   T
  5.4889163889605754 16.0705899999999993 15.6844829445448042   T   T   T
  5.4889163889605754  9.3844099999999990 15.6844829445448042   T   T   T
  4.3911331111684602  5.1419099999999993 14.5866996667526916   T   T   T
  6.5866996667526916  3.3430899999999983 14.5866996667526916   T   T   T
  7.6844829445448060 10.2159399999999998 15.6844829445448077   T   T   T
  4.3911331111684602 14.4584399999999995 14.5866996667526916   T   T   T
  6.5866996667526916 10.9965600000000023 14.5866996667526916   T   T   T
  7.6844829445448060 15.2390599999999949 15.6844829445448077   T   T   T
  5.4889163889605754  1.7309399999999988 15.6844829445448042   T   T   T
  5.4889163889605754  6.7540599999999973 15.6844829445448042   T   T   T
  4.3911331111684602  2.5115599999999980 14.5866996667526916   T   T   T
  6.5866996667526916  5.9734399999999983 14.5866996667526916   T   T   T
  5.4889163889605754 24.5555899999999987  9.0977832777921144   F   F   F
  6.5866996667526898 28.7980899999999949  8.0000000000000000   F   F   F
  4.3911331111684602 30.5969100000000012  8.0000000000000000   F   F   F
  5.4889163889605754 17.8694099999999985  9.0977832777921144   F   F   F
  7.6844829445448060 33.0405899999999946  9.0977832777921144   F   F   F
  7.6844829445448060 26.3544099999999979  9.0977832777921144   F   F   F
  6.5866996667526898 22.1119099999999982  8.0000000000000000   F   F   F
  4.3911331111684602 20.3130899999999990  8.0000000000000000   F   F   F
  5.4889163889605754 27.1859399999999987  9.0977832777921144   F   F   F
  6.5866996667526898 31.4284399999999984  8.0000000000000000   F   F   F
  4.3911331111684602 27.9665600000000012  8.0000000000000000   F   F   F
  5.4889163889605754 32.2090599999999938  9.0977832777921144   F   F   F
  7.6844829445448060 18.7009399999999992  9.0977832777921144   F   F   F
  7.6844829445448060 23.7240599999999979  9.0977832777921144   F   F   F
  6.5866996667526898 19.4815599999999982  8.0000000000000000   F   F   F
  4.3911331111684602 22.9434399999999989  8.0000000000000000   F   F   F
  7.6844829445448060 24.5555899999999987 11.2933498333763467   F   F   F
  4.3911331111684602 28.7980899999999949 10.1955665555842305   F   F   F
  6.5866996667526898 30.5969100000000012 10.1955665555842305   F   F   F
  7.6844829445448060 17.8694099999999985 11.2933498333763467   F   F   F
  5.4889163889605754 33.0405899999999946 11.2933498333763449   F   F   F
  5.4889163889605754 26.3544099999999979 11.2933498333763449   F   F   F
  4.3911331111684602 22.1119099999999982 10.1955665555842305   F   F   F
  6.5866996667526898 20.3130899999999990 10.1955665555842305   F   F   F
  7.6844829445448060 27.1859399999999987 11.2933498333763467   F   F   F
  4.3911331111684602 31.4284399999999984 10.1955665555842305   F   F   F
  6.5866996667526898 27.9665600000000012 10.1955665555842305   F   F   F
  7.6844829445448060 32.2090599999999938 11.2933498333763467   F   F   F
  5.4889163889605754 18.7009399999999992 11.2933498333763449   F   F   F
  5.4889163889605754 23.7240599999999979 11.2933498333763449   F   F   F
  4.3911331111684602 19.4815599999999982 10.1955665555842305   F   F   F
  6.5866996667526898 22.9434399999999989 10.1955665555842305   F   F   F
  5.4889163889605754 24.5555899999999987 13.4889163889605754   T   T   T
  6.5866996667526916 28.7980899999999949 12.3911331111684611   T   T   T
  4.3911331111684602 30.5969100000000012 12.3911331111684611   T   T   T
  5.4889163889605754 17.8694099999999985 13.4889163889605754   T   T   T
  7.6844829445448060 33.0405899999999946 13.4889163889605754   T   T   T
  7.6844829445448060 26.3544099999999979 13.4889163889605754   T   T   T
  6.5866996667526916 22.1119099999999982 12.3911331111684611   T   T   T
  4.3911331111684602 20.3130899999999954 12.3911331111684611   T   T   T
  5.4889163889605754 27.1859399999999987 13.4889163889605754   T   T   T
  6.5866996667526916 31.4284399999999984 12.3911331111684611   T   T   T
  4.3911331111684602 27.9665600000000012 12.3911331111684611   T   T   T
  5.4889163889605754 32.2090599999999938 13.4889163889605754   T   T   T
  7.6844829445448060 18.7009399999999992 13.4889163889605754   T   T   T
  7.6844829445448060 23.7240599999999979 13.4889163889605754   T   T   T
  6.5866996667526916 19.4815599999999982 12.3911331111684611   T   T   T
  4.3911331111684602 22.9434399999999989 12.3911331111684611   T   T   T
  7.6844829445448060 24.5555899999999987 15.6844829445448077   T   T   T
  4.3911331111684602 28.7980899999999949 14.5866996667526916   T   T   T
  6.5866996667526916 30.5969100000000012 14.5866996667526916   T   T   T
  7.6844829445448060 17.8694099999999985 15.6844829445448077   T   T   T
  5.4889163889605754 33.0405899999999946 15.6844829445448042   T   T   T
  5.4889163889605754 26.3544099999999979 15.6844829445448042   T   T   T
  4.3911331111684602 22.1119099999999982 14.5866996667526916   T   T   T
  6.5866996667526916 20.3130899999999954 14.5866996667526916   T   T   T
  7.6844829445448060 27.1859399999999987 15.6844829445448077   T   T   T
  4.3911331111684602 31.4284399999999984 14.5866996667526916   T   T   T
  6.5866996667526916 27.9665600000000012 14.5866996667526916   T   T   T
  7.6844829445448060 32.2090599999999938 15.6844829445448077   T   T   T
  5.4889163889605754 18.7009399999999992 15.6844829445448042   T   T   T
  5.4889163889605754 23.7240599999999944 15.6844829445448042   T   T   T
  4.3911331111684602 19.4815599999999982 14.5866996667526916   T   T   T
  6.5866996667526916 22.9434399999999954 14.5866996667526916   T   T   T
