Ni B  Mo Pd
 1.0000000000000000
    17.9485486878466034    0.0000000000000000    0.0000000000000011
     7.5936167525504930   20.3266373169637795    0.0000000000000013
     0.0000000000000000    0.0000000000000000   39.3995969595548772
 Ni  B   Mo  Pd 
 272 160 160   4
Selective dynamics
Cartesian
 18.9840418813762177  4.1848959181984240 10.3498992398887211   F   F   F
 17.2582198921601950  2.3913690961133849 10.3498992398887228   F   F   F
 15.5323979029441741  0.5978422740283443 10.3498992398887228   F   F   F
 20.0195350749058285  8.3697918363968480 10.3498992398887246   F   F   F
 18.2937130856898094  6.5762650143118115 10.3498992398887228   F   F   F
 16.5678910964737902  4.7827381922267724 10.3498992398887246   F   F   F
 14.8420691072577640  2.9892113701417320 10.3498992398887228   F   F   F
 13.1162471180417484  1.1956845480566916 10.3498992398887193   F   F   F
 22.7808502576514620 14.3482145766803129 10.3498992398887264   F   F   F
 21.0550282684354464 12.5546877545952782 10.3498992398887246   F   F   F
 19.3292062792194237 10.7611609325102346 10.3498992398887246   F   F   F
 17.6033842900034045  8.9676341104251946 10.3498992398887246   F   F   F
 15.8775623007873818  7.1741072883401591 10.3498992398887228   F   F   F
 14.1517403115713609  5.3805804662551191 10.3498992398887246   F   F   F
 12.4259183223553400  3.5870536441700791 10.3498992398887228   F   F   F
 10.7000963331393208  1.7935268220850387 10.3498992398887211   F   F   F
  8.9742743439233017  0.0000000000000000 10.3498992398887211   F   F   F
 23.8163434511810799 18.5331104948787377 10.3498992398887282   F   F   F
 22.0905214619650572 16.7395836727937031 10.3498992398887282   F   F   F
 20.3646994727490380 14.9460568507086595 10.3498992398887246   F   F   F
 18.6388774835330118 13.1525300286236213 10.3498992398887211   F   F   F
 16.9130554943169926 11.3590032065385778 10.3498992398887246   F   F   F
 15.1872335051009735  9.5654763844535413 10.3498992398887246   F   F   F
 13.4614115158849543  7.7719495623685031 10.3498992398887246   F   F   F
 11.7355895266689334  5.9784227402834640 10.3498992398887246   F   F   F
 10.0097675374529143  4.1848959181984240 10.3498992398887211   F   F   F
  8.2839455482368951  2.3913690961133853 10.3498992398887211   F   F   F
  6.5581235590208724  0.5978422740283460 10.3498992398887211   F   F   F
 21.4001926662786452 19.1309527689070826 10.3498992398887246   F   F   F
 19.6743706770626297 17.3374259468220444 10.3498992398887264   F   F   F
 17.9485486878466105 15.5438991247370062 10.3498992398887246   F   F   F
 16.2227266986305878 13.7503723026519644 10.3498992398887228   F   F   F
 14.4969047094145669 11.9568454805669244 10.3498992398887246   F   F   F
 12.7710827201985495 10.1633186584818880 10.3498992398887228   F   F   F
 11.0452607309825268  8.3697918363968498 10.3498992398887246   F   F   F
  9.3194387417665059  6.5762650143118107 10.3498992398887193   F   F   F
  7.5936167525504885  4.7827381922267715 10.3498992398887228   F   F   F
  5.8677947633344676  2.9892113701417311 10.3498992398887193   F   F   F
  4.1419727741184467  1.1956845480566924 10.3498992398887193   F   F   F
 18.9840418813762213 19.7287950429354311 10.3498992398887282   F   F   F
 17.2582198921601986 17.9352682208503929 10.3498992398887264   F   F   F
 15.5323979029441830 16.1417413987653511 10.3498992398887264   F   F   F
 13.8065759137281603 14.3482145766803129 10.3498992398887246   F   F   F
 12.0807539245121411 12.5546877545952711 10.3498992398887246   F   F   F
 10.3549319352961184 10.7611609325102346 10.3498992398887246   F   F   F
  8.6291099460801011  8.9676341104251946 10.3498992398887246   F   F   F
  6.9032879568640819  7.1741072883401564 10.3498992398887228   F   F   F
  5.1774659676480610  5.3805804662551173 10.3498992398887211   F   F   F
  3.4516439784320401  3.5870536441700782 10.3498992398887211   F   F   F
  1.7258219892160200  1.7935268220850387 10.3498992398887193   F   F   F
  0.0000000000000002 -0.0000000000000001 10.3498992398887193   F   F   F
 14.8420691072577746 18.5331104948787413 10.3498992398887246   F   F   F
 13.1162471180417519 16.7395836727936960 10.3498992398887264   F   F   F
 11.3904251288257328 14.9460568507086595 10.3498992398887246   F   F   F
  9.6646031396097136 13.1525300286236213 10.3498992398887246   F   F   F
  7.9387811503936954 11.3590032065385813 10.3498992398887246   F   F   F
  6.2129591611776736  9.5654763844535413 10.3498992398887228   F   F   F
  4.4871371719616526  7.7719495623685031 10.3498992398887193   F   F   F
  2.7613151827456335  5.9784227402834640 10.3498992398887211   F   F   F
 12.4259183223553471 19.1309527689070862 10.3498992398887264   F   F   F
 10.7000963331393280 17.3374259468220480 10.3498992398887264   F   F   F
  8.9742743439233053 15.5438991247370062 10.3498992398887246   F   F   F
  7.2484523547072879 13.7503723026519697 10.3498992398887246   F   F   F
  5.5226303654912661 11.9568454805669280 10.3498992398887228   F   F   F
  3.7968083762752456 10.1633186584818880 10.3498992398887211   F   F   F
 10.0097675374529196 19.7287950429354311 10.3498992398887211   F   F   F
  8.2839455482369004 17.9352682208503893 10.3498992398887264   F   F   F
  6.5581235590208804 16.1417413987653511 10.3498992398887246   F   F   F
 17.6033842900034010  3.7863344021795258 12.3821721874362058   F   F   F
 15.8775623007873801  1.9928075800944864 12.3821721874362058   F   F   F
 14.1517403115713609  0.1992807580094481 12.3821721874362041   F   F   F
 18.6388774835330082  7.9712303203779511 12.3821721874362076   F   F   F
 16.9130554943169926  6.1777034982929120 12.3821721874362076   F   F   F
 15.1872335051009735  4.3841766762078738 12.3821721874362076   F   F   F
 13.4614115158849508  2.5906498541228333 12.3821721874362058   F   F   F
 11.7355895266689334  0.7971230320377944 12.3821721874362041   F   F   F
 21.4001926662786452 13.9496530606614169 12.3821721874362094   F   F   F
 19.6743706770626261 12.1561262385763769 12.3821721874362094   F   F   F
 17.9485486878466034 10.3625994164913351 12.3821721874362076   F   F   F
 16.2227266986305878  8.5690725944062986 12.3821721874362058   F   F   F
 14.4969047094145651  6.7755457723212587 12.3821721874362076   F   F   F
 12.7710827201985495  4.9820189502362222 12.3821721874362076   F   F   F
 11.0452607309825233  3.1884921281511818 12.3821721874362058   F   F   F
  9.3194387417665041  1.3949653060661413 12.3821721874362041   F   F   F
 15.1872335051009770 19.9280758009448817 12.3821721874362058   F   F   F
 22.4356858598082596 18.1345489788598400 12.3821721874362076   F   F   F
 20.7098638705922404 16.3410221567747982 12.3821721874362112   F   F   F
 18.9840418813762213 14.5474953346897617 12.3821721874362076   F   F   F
 17.2582198921601986 12.7539685126047235 12.3821721874362076   F   F   F
 15.5323979029441812 10.9604416905196853 12.3821721874362058   F   F   F
 13.8065759137281585  9.1669148684346453 12.3821721874362076   F   F   F
 12.0807539245121340  7.3733880463496053 12.3821721874362058   F   F   F
 10.3549319352961184  5.5798612242645662 12.3821721874362058   F   F   F
  8.6291099460800993  3.7863344021795275 12.3821721874362041   F   F   F
  6.9032879568640784  1.9928075800944873 12.3821721874362041   F   F   F
  5.1774659676480583  0.1992807580094481 12.3821721874362041   F   F   F
 20.0195350749058356 18.7323912528881884 12.3821721874362076   F   F   F
 18.2937130856898129 16.9388644308031466 12.3821721874362112   F   F   F
 16.5678910964737973 15.1453376087181102 12.3821721874362112   F   F   F
 14.8420691072577728 13.3518107866330684 12.3821721874362076   F   F   F
 13.1162471180417519 11.5582839645480284 12.3821721874362076   F   F   F
 11.3904251288257328  9.7647571424629920 12.3821721874362076   F   F   F
  9.6646031396097101  7.9712303203779511 12.3821721874362076   F   F   F
  7.9387811503936891  6.1777034982929120 12.3821721874362041   F   F   F
  6.2129591611776709  4.3841766762078729 12.3821721874362041   F   F   F
  4.4871371719616508  2.5906498541228347 12.3821721874362041   F   F   F
  2.7613151827456317  0.7971230320377947 12.3821721874362041   F   F   F
 17.6033842900034081 19.3302335269165333 12.3821721874362094   F   F   F
 15.8775623007873854 17.5367067048314915 12.3821721874362112   F   F   F
 14.1517403115713662 15.7431798827464551 12.3821721874362094   F   F   F
 12.4259183223553435 13.9496530606614151 12.3821721874362076   F   F   F
 10.7000963331393244 12.1561262385763751 12.3821721874362076   F   F   F
  8.9742743439233053 10.3625994164913386 12.3821721874362076   F   F   F
  7.2484523547072852  8.5690725944062969 12.3821721874362058   F   F   F
  5.5226303654912652  6.7755457723212595 12.3821721874362041   F   F   F
  3.7968083762752443  4.9820189502362195 12.3821721874362041   F   F   F
  2.0709863870592251  3.1884921281511809 12.3821721874362041   F   F   F
 18.2937130856898058  1.3949653060661407 12.3821721874362058   F   F   F
 24.1615078490242823 19.9280758009448782 12.3821721874362112   F   F   F
 13.4614115158849597 18.1345489788598435 12.3821721874362076   F   F   F
 11.7355895266689387 16.3410221567748053 12.3821721874362076   F   F   F
 10.0097675374529178 14.5474953346897635 12.3821721874362076   F   F   F
  8.2839455482368969 12.7539685126047200 12.3821721874362076   F   F   F
  6.5581235590208795 10.9604416905196853 12.3821721874362058   F   F   F
  4.8323015698048586  9.1669148684346453 12.3821721874362058   F   F   F
  3.1064795805888377  7.3733880463496062 12.3821721874362041   F   F   F
 19.3292062792194201  5.5798612242645653 12.3821721874362076   F   F   F
 11.0452607309825304 18.7323912528881849 12.3821721874362076   F   F   F
  9.3194387417665112 16.9388644308031502 12.3821721874362094   F   F   F
  7.5936167525504903 15.1453376087181084 12.3821721874362076   F   F   F
  5.8677947633344729 13.3518107866330737 12.3821721874362058   F   F   F
 22.0905214619650536 11.5582839645480302 12.3821721874362041   F   F   F
 20.3646994727490309  9.7647571424629884 12.3821721874362076   F   F   F
  8.6291099460801082 19.3302335269165368 12.3821721874362076   F   F   F
  6.9032879568640819 17.5367067048314915 12.3821721874362076   F   F   F
 23.1260146554946644 15.7431798827464497 12.3821721874362076   F   F   F
 17.9485486878466034  5.1812997082456640 14.4144451349836888   T   T   T
 16.2227266986305843  3.3877728861606271 14.4144451349836888   T   T   T
 14.4969047094145633  1.5942460640755882 14.4144451349836906   T   T   T
 18.9840418813762213  9.3661956264440924 14.4144451349836906   T   T   T
 17.2582198921601986  7.5726688043590533 14.4144451349836924   T   T   T
 15.5323979029441794  5.7791419822740133 14.4144451349836888   T   T   T
 13.8065759137281567  3.9856151601889747 14.4144451349836906   T   T   T
 12.0807539245121358  2.1920883381039342 14.4144451349836871   T   T   T
 21.7453570641218512 15.3446183667275573 14.4144451349836924   T   T   T
 20.0195350749058321 13.5510915446425209 14.4144451349836906   T   T   T
 18.2937130856898165 11.7575647225574791 14.4144451349836906   T   T   T
 16.5678910964737902  9.9640379004724391 14.4144451349836871   T   T   T
 14.8420691072577711  8.1705110783873991 14.4144451349836888   T   T   T
 13.1162471180417501  6.3769842563023618 14.4144451349836888   T   T   T
 11.3904251288257292  4.5834574342173227 14.4144451349836906   T   T   T
  9.6646031396097083  2.7899306121322822 14.4144451349836888   T   T   T
  7.9387811503936900  0.9964037900472428 14.4144451349836871   T   T   T
 22.7808502576514620 19.5295142849259840 14.4144451349836906   T   T   T
 21.0550282684354428 17.7359874628409422 14.4144451349836942   T   T   T
 19.3292062792194272 15.9424606407559022 14.4144451349836906   T   T   T
 17.6033842900034010 14.1489338186708604 14.4144451349836906   T   T   T
 15.8775623007873818 12.3554069965858240 14.4144451349836906   T   T   T
 14.1517403115713645 10.5618801745007858 14.4144451349836906   T   T   T
 12.4259183223553471  8.7683533524157458 14.4144451349836906   T   T   T
 10.7000963331393226  6.9748265303307067 14.4144451349836871   T   T   T
  8.9742743439233017  5.1812997082456667 14.4144451349836871   T   T   T
  7.2484523547072834  3.3877728861606276 14.4144451349836871   T   T   T
  5.5226303654912634  1.5942460640755882 14.4144451349836853   T   T   T
 20.3646994727490345 20.1273565589543253 14.4144451349836906   T   T   T
 18.6388774835330118 18.3338297368692835 14.4144451349836906   T   T   T
 16.9130554943170033 16.5403029147842489 14.4144451349836906   T   T   T
 15.1872335051009770 14.7467760926992106 14.4144451349836906   T   T   T
 13.4614115158849579 12.9532492706141706 14.4144451349836906   T   T   T
 11.7355895266689370 11.1597224485291306 14.4144451349836906   T   T   T
 10.0097675374529160  9.3661956264440924 14.4144451349836871   T   T   T
  8.2839455482368969  7.5726688043590533 14.4144451349836888   T   T   T
  6.5581235590208751  5.7791419822740133 14.4144451349836871   T   T   T
  4.8323015698048568  3.9856151601889747 14.4144451349836871   T   T   T
  3.1064795805888363  2.1920883381039356 14.4144451349836853   T   T   T
 10.3549319352961220  0.3985615160188957 14.4144451349836888   T   T   T
 16.2227266986305878 18.9316720108976284 14.4144451349836906   T   T   T
 14.4969047094145687 17.1381451888125973 14.4144451349836924   T   T   T
 12.7710827201985531 15.3446183667275537 14.4144451349836906   T   T   T
 11.0452607309825304 13.5510915446425173 14.4144451349836906   T   T   T
  9.3194387417665112 11.7575647225574791 14.4144451349836871   T   T   T
  7.5936167525504894  9.9640379004724373 14.4144451349836906   T   T   T
  5.8677947633344703  8.1705110783873991 14.4144451349836871   T   T   T
  4.1419727741184502  6.3769842563023591 14.4144451349836871   T   T   T
  2.4161507849024293  4.5834574342173209 14.4144451349836871   T   T   T
 18.6388774835330082  2.7899306121322809 14.4144451349836888   T   T   T
 16.9130554943169926  0.9964037900472411 14.4144451349836906   T   T   T
 13.8065759137281638 19.5295142849259769 14.4144451349836942   T   T   T
 12.0807539245121447 17.7359874628409422 14.4144451349836906   T   T   T
 10.3549319352961220 15.9424606407559022 14.4144451349836906   T   T   T
  8.6291099460801028 14.1489338186708657 14.4144451349836871   T   T   T
  6.9032879568640819 12.3554069965858240 14.4144451349836906   T   T   T
  5.1774659676480645 10.5618801745007858 14.4144451349836871   T   T   T
  3.4516439784320436  8.7683533524157458 14.4144451349836871   T   T   T
 19.6743706770626297  6.9748265303307075 14.4144451349836906   T   T   T
 11.3904251288257381 20.1273565589543253 14.4144451349836924   T   T   T
  9.6646031396097190 18.3338297368692942 14.4144451349836906   T   T   T
  7.9387811503936963 16.5403029147842524 14.4144451349836906   T   T   T
  6.2129591611776753 14.7467760926992106 14.4144451349836906   T   T   T
 22.4356858598082596 12.9532492706141724 14.4144451349836942   T   T   T
 20.7098638705922404 11.1597224485291306 14.4144451349836906   T   T   T
  1.3806575913728154  0.3985615160188912 14.4144451349836888   T   T   T
  7.2484523547072914 18.9316720108976355 14.4144451349836906   T   T   T
 23.4711790533378668 17.1381451888125866 14.4144451349836906   T   T   T
 18.9840418813762142  4.1848959181984231 16.4467180825311701   T   T   T
 17.2582198921601915  2.3913690961133831 16.4467180825311701   T   T   T
 15.5323979029441759  0.5978422740283438 16.4467180825311701   T   T   T
 20.0195350749058321  8.3697918363968480 16.4467180825311701   T   T   T
 18.2937130856898094  6.5762650143118107 16.4467180825311701   T   T   T
 16.5678910964737867  4.7827381922267707 16.4467180825311701   T   T   T
 14.8420691072577675  2.9892113701417311 16.4467180825311701   T   T   T
 13.1162471180417466  1.1956845480566904 16.4467180825311701   T   T   T
 22.7808502576514584 14.3482145766803129 16.4467180825311772   T   T   T
 21.0550282684354393 12.5546877545952711 16.4467180825311772   T   T   T
 19.3292062792194237 10.7611609325102346 16.4467180825311701   T   T   T
 17.6033842900034045  8.9676341104251946 16.4467180825311701   T   T   T
 15.8775623007873783  7.1741072883401555 16.4467180825311701   T   T   T
 14.1517403115713609  5.3805804662551173 16.4467180825311701   T   T   T
 12.4259183223553400  3.5870536441700778 16.4467180825311701   T   T   T
 10.7000963331393191  1.7935268220850378 16.4467180825311701   T   T   T
  8.9742743439232999 -0.0000000000000011 16.4467180825311701   T   T   T
 23.8163434511810763 18.5331104948787377 16.4467180825311772   T   T   T
 22.0905214619650536 16.7395836727936960 16.4467180825311772   T   T   T
 20.3646994727490345 14.9460568507086577 16.4467180825311772   T   T   T
 18.6388774835330082 13.1525300286236213 16.4467180825311701   T   T   T
 16.9130554943169926 11.3590032065385778 16.4467180825311701   T   T   T
 15.1872335051009717  9.5654763844535413 16.4467180825311701   T   T   T
 13.4614115158849543  7.7719495623685031 16.4467180825311701   T   T   T
 11.7355895266689334  5.9784227402834640 16.4467180825311701   T   T   T
 10.0097675374529143  4.1848959181984231 16.4467180825311701   T   T   T
  8.2839455482368951  2.3913690961133840 16.4467180825311701   T   T   T
  6.5581235590208742  0.5978422740283434 16.4467180825311701   T   T   T
 21.4001926662786452 19.1309527689070826 16.4467180825311772   T   T   T
 19.6743706770626261 17.3374259468220444 16.4467180825311772   T   T   T
 17.9485486878466105 15.5438991247370026 16.4467180825311701   T   T   T
 16.2227266986305914 13.7503723026519662 16.4467180825311701   T   T   T
 14.4969047094145651 11.9568454805669244 16.4467180825311701   T   T   T
 12.7710827201985495 10.1633186584818880 16.4467180825311701   T   T   T
 11.0452607309825268  8.3697918363968480 16.4467180825311701   T   T   T
  9.3194387417665077  6.5762650143118107 16.4467180825311701   T   T   T
  7.5936167525504867  4.7827381922267707 16.4467180825311701   T   T   T
  5.8677947633344676  2.9892113701417307 16.4467180825311701   T   T   T
  4.1419727741184467  1.1956845480566904 16.4467180825311701   T   T   T
 18.9840418813762213 19.7287950429354311 16.4467180825311772   T   T   T
 17.2582198921602021 17.9352682208503893 16.4467180825311772   T   T   T
 15.5323979029441830 16.1417413987653511 16.4467180825311772   T   T   T
 13.8065759137281585 14.3482145766803111 16.4467180825311701   T   T   T
 12.0807539245121411 12.5546877545952711 16.4467180825311701   T   T   T
 10.3549319352961184 10.7611609325102346 16.4467180825311772   T   T   T
  8.6291099460800993  8.9676341104251946 16.4467180825311701   T   T   T
  6.9032879568640793  7.1741072883401555 16.4467180825311701   T   T   T
  5.1774659676480610  5.3805804662551155 16.4467180825311701   T   T   T
  3.4516439784320401  3.5870536441700760 16.4467180825311701   T   T   T
  1.7258219892160191  1.7935268220850373 16.4467180825311701   T   T   T
  0.0000000000000002 -0.0000000000000007 16.4467180825311701   T   T   T
 14.8420691072577746 18.5331104948787413 16.4467180825311772   T   T   T
 13.1162471180417519 16.7395836727936995 16.4467180825311701   T   T   T
 11.3904251288257363 14.9460568507086577 16.4467180825311701   T   T   T
  9.6646031396097136 13.1525300286236213 16.4467180825311701   T   T   T
  7.9387811503936927 11.3590032065385813 16.4467180825311701   T   T   T
  6.2129591611776727  9.5654763844535395 16.4467180825311701   T   T   T
  4.4871371719616544  7.7719495623685022 16.4467180825311701   T   T   T
  2.7613151827456330  5.9784227402834613 16.4467180825311701   T   T   T
 12.4259183223553435 19.1309527689070826 16.4467180825311701   T   T   T
 10.7000963331393280 17.3374259468220409 16.4467180825311701   T   T   T
  8.9742743439233053 15.5438991247370044 16.4467180825311701   T   T   T
  7.2484523547072870 13.7503723026519662 16.4467180825311701   T   T   T
  5.5226303654912652 11.9568454805669280 16.4467180825311701   T   T   T
  3.7968083762752460 10.1633186584818862 16.4467180825311701   T   T   T
 10.0097675374529196 19.7287950429354346 16.4467180825311701   T   T   T
  8.2839455482368987 17.9352682208503929 16.4467180825311701   T   T   T
  6.5581235590208786 16.1417413987653511 16.4467180825311772   T   T   T
 12.3418025304678238 15.3071832357215989 25.7233275031053807   T   T   T
  6.2669091284274288 -0.9541266178494248 25.7233275031053807   T   T   T
  7.7856324789375275  3.1112008455433315 25.7233275031053807   T   T   T
  9.3043558294476263  7.1765283089360876 25.7233275031053807   T   T   T
 10.8230791799577251 11.2418557723288437 25.7233275031053807   T   T   T
  1.1457533455557360 -2.4535259697513272 25.1789729322919769   T   T   T
  2.6644766960658353  1.6118014936414282 25.1789729322919840   T   T   T
  4.1832000465759336  5.6771289570341850 25.1789729322919840   T   T   T
  5.7019233970860341  9.7424564204269473 25.1789729322919840   T   T   T
  7.2206467475961311 13.8077838838196989 25.1789729322919769   T   T   T
 12.1415042617993620 16.5492076885789707 26.9121978857618487   T   T   T
  6.0666108597589687  0.2878978350079488 26.9121978857618487   T   T   T
  7.5853342102690675  4.3532252984007043 26.9121978857618487   T   T   T
  9.1040575607791663  8.4185527617934603 26.9121978857618487   T   T   T
 10.6227809112892650 12.4838802251862155 26.9121978857618487   T   T   T
  7.7797101541827223 17.0824720683734519 26.3678433149484448   T   T   T
  1.7048167521423272  0.8211622148024246 26.3678433149484448   T   T   T
  3.2235401026524260  4.8864896781951810 26.3678433149484448   T   T   T
  4.7422634531625256  8.9518171415879397 26.3678433149484448   T   T   T
  6.2609868036726235 13.0171446049806931 26.3678433149484448   T   T   T
 21.8247524209561590 16.2733182078290248 26.8120366447321814   T   T   T
 15.7498590189157639  0.0120083542580001 26.8120366447321814   T   T   T
 17.2685823694258644  4.0773358176507548 26.8120366447321814   T   T   T
 18.7873057199359614  8.1426632810435144 26.8120366447321814   T   T   T
 20.3060290704460620 12.2079907444362696 26.8120366447321814   T   T   T
 16.2453089515409914 16.1163370962660260 25.2791341733216441   T   T   T
 10.1704155495005946 -0.1449727573049991 25.2791341733216441   T   T   T
 11.6891389000106933  3.9203547060877559 25.2791341733216441   T   T   T
 13.2078622505207939  7.9856821694805156 25.2791341733216441   T   T   T
 14.7265856010308909 12.0510096328732708 25.2791341733216441   T   T   T
 20.6071030591576339 15.5830727164715466 25.8234887441350480   T   T   T
 14.5322096571172406 -0.6782371370994761 25.8234887441350480   T   T   T
 16.0509330076273393  3.3870903262932788 25.8234887441350480   T   T   T
 17.5696563581374363  7.4524177896860380 25.8234887441350409   T   T   T
 19.0883797086475369 11.5177452530787932 25.8234887441350480   T   T   T
 16.7035966380844698 14.7739188559271248 26.2676820739187775   T   T   T
 10.6287032360440730 -1.4873909976439019 26.2676820739187775   T   T   T
 12.1474265865541735  2.5779364657488570 26.2676820739187846   T   T   T
 13.6661499370642723  6.6432639291416118 26.2676820739187846   T   T   T
 15.1848732875743710 10.7085913925343696 26.2676820739187846   T   T   T
 11.3244514373377534 13.3749132915067488 23.5459092198517794   T   T   T
  5.2495580352973583 -2.8863965620642733 23.5459092198517794   T   T   T
  6.7682813858074580  1.1789309013284843 23.5459092198517794   T   T   T
  8.2870047363175559  5.2442583647212393 23.5459092198517794   T   T   T
  9.8057280868276546  9.3095858281139954 23.5459092198517794   T   T   T
  0.1284022524256641 -4.3857959139661746 23.0015546490383755   T   T   T
  1.6471256029357617 -0.3204684505734205 23.0015546490383755   T   T   T
  3.1658489534458609  3.7448590128193371 23.0015546490383755   T   T   T
  4.6845723039559619  7.8101864762120989 23.0015546490383755   T   T   T
  6.2032956544660598 11.8755139396048524 23.0015546490383755   T   T   T
 11.1241531686692898 14.6169377443641242 24.7347796025082474   T   T   T
  5.0492597666288965 -1.6443721092068981 24.7347796025082474   T   T   T
  6.5679831171389944  2.4209553541858573 24.7347796025082474   T   T   T
  8.0867064676490941  6.4862828175786138 24.7347796025082474   T   T   T
  9.6054298181591928 10.5516102809713708 24.7347796025082474   T   T   T
  6.7623590610526509 15.1502021241586036 24.1904250316948506   T   T   T
  0.6874656590122554 -1.1111077294124216 24.1904250316948506   T   T   T
  2.2061890095223538  2.9542197339803340 24.1904250316948435   T   T   T
  3.7249123600324534  7.0195471973730932 24.1904250316948506   T   T   T
  5.2436357105425531 11.0848746607658484 24.1904250316948506   T   T   T
 20.8074013278260885 14.3410482636141783 24.6346183614785801   T   T   T
 14.7325079257856935 -1.9202615899568463 24.6346183614785801   T   T   T
 16.2512312762957940  2.1450658734359092 24.6346183614785801   T   T   T
 17.7699546268058910  6.2103933368286679 24.6346183614785801   T   T   T
 19.2886779773159915 10.2757208002214231 24.6346183614785801   T   T   T
 15.2279578584109174 14.1840671520511776 23.1017158900680428   T   T   T
  9.1530644563705224 -2.0772427015198445 23.1017158900680428   T   T   T
 10.6717878068806211  1.9880847618729101 23.1017158900680499   T   T   T
 12.1905111573907217  6.0534122252656699 23.1017158900680499   T   T   T
 13.7092345079008187 10.1187396886584242 23.1017158900680428   T   T   T
 19.5897519660275634 13.6508027722567000 23.6460704608814538   T   T   T
 13.5148585639871683 -2.6105070813143230 23.6460704608814467   T   T   T
 15.0335819144972653  1.4548203820784331 23.6460704608814467   T   T   T
 16.5523052650073659  5.5201478454711941 23.6460704608814467   T   T   T
 18.0710286155174629  9.5854753088639466 23.6460704608814467   T   T   T
 15.6862455449543958 12.8416489117122783 24.0902637906651762   T   T   T
  9.6113521429140008 -3.4196609418587487 24.0902637906651762   T   T   T
 11.1300754934240995  0.6456665215340087 24.0902637906651833   T   T   T
 12.6487988439341983  4.7109939849267652 24.0902637906651833   T   T   T
 14.1675221944442988  8.7763214483195249 24.0902637906651833   T   T   T
 10.3071003442076794 11.4426433472919022 21.3684909365981781   T   T   T
  4.2322069421672852 -4.8186665062791203 21.3684909365981781   T   T   T
  5.7509302926773840 -0.7533390428863634 21.3684909365981781   T   T   T
  7.2696536431874819  3.3119884205063914 21.3684909365981781   T   T   T
  8.7883769936975824  7.3773158838991488 21.3684909365981781   T   T   T
 -0.8889488407044077 -6.3180658581810212 20.8241363657847813   T   T   T
  0.6297745098056905 -2.2527383947882660 20.8241363657847813   T   T   T
  2.1484978603157883  1.8125890686044890 20.8241363657847813   T   T   T
  3.6672212108258897  5.8779165319972515 20.8241363657847813   T   T   T
  5.1859445613359876  9.9432439953900058 20.8241363657847813   T   T   T
 10.1068020755392194 12.6846678001492776 22.5573613192546460   T   T   T
  4.0319086734988261 -3.5766420534217453 22.5573613192546460   T   T   T
  5.5506320240089240  0.4886854099710110 22.5573613192546460   T   T   T
  7.0693553745190227  4.5540128733637673 22.5573613192546460   T   T   T
  8.5880787250291224  8.6193403367565242 22.5573613192546460   T   T   T
  5.7450079679225787 13.2179321799437570 22.0130067484412422   T   T   T
 -0.3298854341178176 -3.0433776736272709 22.0130067484412422   T   T   T
  1.1888379163922813  1.0219497897654861 22.0130067484412422   T   T   T
  2.7075612669023816  5.0872772531582449 22.0130067484412493   T   T   T
  4.2262846174124800  9.1526047165510001 22.0130067484412422   T   T   T
 19.7900502346960181 12.4087783193993300 22.4572000782249788   T   T   T
 13.7151568326556212 -3.8525315341716939 22.4572000782249788   T   T   T
 15.2338801831657200  0.2127959292210612 22.4572000782249859   T   T   T
 16.7526035336758206  4.2781233926138231 22.4572000782249859   T   T   T
 18.2713268841859175  8.3434508560065765 22.4572000782249859   T   T   T
 14.2106067652808470 12.2517972078363311 20.9242976068144486   T   T   T
  8.1357133632404519 -4.0095126457346932 20.9242976068144486   T   T   T
  9.6544367137505507  0.0558148176580620 20.9242976068144486   T   T   T
 11.1731600642606494  4.1211422810508207 20.9242976068144486   T   T   T
 12.6918834147707482  8.1864697444435759 20.9242976068144486   T   T   T
 18.5724008728974894 11.7185328280418535 21.4686521776278454   T   T   T
 12.4975074708570943 -4.5427770255291717 21.4686521776278454   T   T   T
 14.0162308213671931 -0.4774495621364162 21.4686521776278454   T   T   T
 15.5349541718772937  3.5878779012563444 21.4686521776278454   T   T   T
 17.0536775223873924  7.6532053646490992 21.4686521776278454   T   T   T
 14.6688944518243254 10.9093789674974317 21.9128455074115749   T   T   T
  8.5940010497839285 -5.3519308860735944 21.9128455074115820   T   T   T
 10.1127244002940273 -1.2866034226808376 21.9128455074115820   T   T   T
 11.6314477508041261  2.7787240407119178 21.9128455074115820   T   T   T
 13.1501711013142266  6.8440515041046774 21.9128455074115820   T   T   T
  9.2897492510776072  9.5103734030770575 19.1910726533445839   T   T   T
  3.2148558490372143 -6.7509364504939651 19.1910726533445839   T   T   T
  4.7335791995473127 -2.6856089871012085 19.1910726533445839   T   T   T
  6.2523025500574096  1.3797184762915451 19.1910726533445839   T   T   T
  7.7710259005675102  5.4450459396843032 19.1910726533445839   T   T   T
 -1.9062999338344815 -8.2503358023958704 18.6467180825311800   T   T   T
 -0.3875765833243818 -4.1850083390031134 18.6467180825311800   T   T   T
  1.1311467671857167 -0.1196808756103573 18.6467180825311800   T   T   T
  2.6498701176958175  3.9456465877824036 18.6467180825311800   T   T   T
  4.1685934682059154  8.0109740511751593 18.6467180825311800   T   T   T
  9.0894509824091454 10.7523978559344275 20.3799430360010447   T   T   T
  3.0145575803687517 -5.5089119976365950 20.3799430360010447   T   T   T
  4.5332809308788509 -1.4435845342438376 20.3799430360010447   T   T   T
  6.0520042813889487  2.6217429291489176 20.3799430360010447   T   T   T
  7.5707276318990484  6.6870703925416750 20.3799430360010447   T   T   T
  4.7276568747925056 11.2856622357289087 19.8355884651876480   T   T   T
 -1.3472365272478894 -4.9756476178421174 19.8355884651876480   T   T   T
  0.1714868232622095 -0.9103201544493605 19.8355884651876480   T   T   T
  1.6902101737723076  3.1550073089433948 19.8355884651876480   T   T   T
  3.2089335242824073  7.2203347723361526 19.8355884651876480   T   T   T
 18.7726991415659441 10.4765083751844834 20.2797817949713775   T   T   T
 12.6978057395255490 -5.7848014783865409 20.2797817949713775   T   T   T
 14.2165290900356478 -1.7194740149937857 20.2797817949713775   T   T   T
 15.7352524405457466  2.3458534483989739 20.2797817949713775   T   T   T
 17.2539757910558436  6.4111809117917291 20.2797817949713846   T   T   T
 13.1932556721507765 10.3195272636214845 18.7468793235608473   T   T   T
  7.1183622701103815 -5.9417825899495416 18.7468793235608473   T   T   T
  8.6370856206204802 -1.8764551265567850 18.7468793235608473   T   T   T
 10.1558089711305790  2.1888723368359742 18.7468793235608473   T   T   T
 11.6745323216406760  6.2541998002287276 18.7468793235608473   T   T   T
 17.5550497797674225  9.7862628838270069 19.2912338943742441   T   T   T
 11.4801563777270275 -6.4750469697440174 19.2912338943742441   T   T   T
 12.9988797282371262 -2.4097195063512635 19.2912338943742441   T   T   T
 14.5176030787472268  1.6556079570414974 19.2912338943742441   T   T   T
 16.0363264292573255  5.7209354204342535 19.2912338943742512   T   T   T
 13.6515433586942549  8.9771090232825852 19.7354272241579807   T   T   T
  7.5766499566538581 -7.2842008302884409 19.7354272241579807   T   T   T
  9.0953733071639569 -3.2188733668956839 19.7354272241579807   T   T   T
 10.6140966576740556  0.8464540964970720 19.7354272241579878   T   T   T
 12.1328200081841562  4.9117815598898309 19.7354272241579807   T   T   T
 14.7307360383198223 14.3775556375424181 25.3858276692010705   T   T   T
  8.6558426362794290 -1.8837542160286049 25.3858276692010705   T   T   T
 10.1745659867895277  2.1815732473641516 25.3858276692010705   T   T   T
 11.6932893372996265  6.2469007107569086 25.3858276692010705   T   T   T
 13.2120126878097253 10.3122281741496646 25.3858276692010705   T   T   T
  4.5520379465378049 -1.4508836237156579 27.0188913816412679   T   T   T
  6.0707612970479037  2.6144438396770986 27.0188913816412679   T   T   T
  7.5894846475580033  6.6797713030698569 27.0188913816412679   T   T   T
  9.1082079980681030 10.7450987664626130 27.0188913816412750   T   T   T
 10.6269313485782000 14.8104262298553682 27.0188913816412679   T   T   T
  9.7525707539473672 17.4788352867581480 27.2496977196661518   T   T   T
  3.6776773519069734  1.2175254331871257 27.2496977196661518   T   T   T
  5.1964007024170726  5.2828528965798824 27.2496977196661518   T   T   T
  6.7151240529271714  9.3481803599726376 27.2496977196661589   T   T   T
  8.2338474034372702 13.4135078233653964 27.2496977196661589   T   T   T
 21.8206019836672276 13.9467722031598740 26.7053431488527551   T   T   T
 15.7457085816268343 -2.3145376504111494 26.7053431488527551   T   T   T
 17.2644319321369331  1.7507898129816066 26.7053431488527551   T   T   T
 18.7831552826470300  5.8161172763743627 26.7053431488527551   T   T   T
 20.3018786331571306  9.8814447397671206 26.7053431488527551   T   T   T
  0.1902438389211611 -0.9176192439211805 26.4745368108278782   T   T   T
  1.7089671894312599  3.1477082194715758 26.4745368108278782   T   T   T
  3.2276905399413582  7.2130356828643309 26.4745368108278782   T   T   T
  4.7464138904514579 11.2783631462570888 26.4745368108278782   T   T   T
  6.2651372409615567 15.3436906096498440 26.4745368108278711   T   T   T
  6.2627586911384947 -3.2806726225185763 25.6166340072259544   T   T   T
  7.7814820416485935  0.7846548408741797 25.6166340072259544   T   T   T
  9.3002053921586914  4.8499823042669359 25.6166340072259544   T   T   T
 10.8189287426687919  8.9153097676596946 25.6166340072259544   T   T   T
 12.3376520931788889 12.9806372310524480 25.6166340072259544   T   T   T
 18.2181695513056319 16.5127003146507292 26.1609885780393583   T   T   T
 12.1432761492652368  0.2513904610797050 26.1609885780393512   T   T   T
 13.6619994997753356  4.3167179244724609 26.1609885780393512   T   T   T
 15.1807228502854343  8.3820453878652188 26.1609885780393512   T   T   T
 16.6994462007955349 12.4473728512579740 26.1609885780393583   T   T   T
 19.0925301459364682 13.8442912577479404 25.9301822400144744   T   T   T
 13.0176367438960749 -2.4170185958230817 25.9301822400144744   T   T   T
 14.5363600944061737  1.6483088675696751 25.9301822400144744   T   T   T
 16.0550834449162743  5.7136363309624327 25.9301822400144744   T   T   T
 17.5738067954263713  9.7789637943551888 25.9301822400144744   T   T   T
 13.7133849451897500 12.4452856933275715 23.2084093859474692   T   T   T
  7.6384915431493559 -3.8160241602434515 23.2084093859474692   T   T   T
  9.1572148936594555  0.2493033031493047 23.2084093859474692   T   T   T
 10.6759382441695543  4.3146307665420620 23.2084093859474692   T   T   T
 12.1946615946796530  8.3799582299348199 23.2084093859474692   T   T   T
  3.5346868534077336 -3.3831535679305045 24.8414730983876737   T   T   T
  5.0534102039178332  0.6821738954622526 24.8414730983876737   T   T   T
  6.5721335544279320  4.7475013588550086 24.8414730983876737   T   T   T
  8.0908569049380326  8.8128288222477682 24.8414730983876737   T   T   T
  9.6095802554481295 12.8781562856405216 24.8414730983876737   T   T   T
  8.7352196608172967 15.5465653425433015 25.0722794364125576   T   T   T
  2.6603262587769017 -0.7147445110277216 25.0722794364125576   T   T   T
  4.1790496092870004  3.3505829523650354 25.0722794364125576   T   T   T
  5.6977729597970992  7.4159104157577911 25.0722794364125576   T   T   T
  7.2164963103071997 11.4812378791505516 25.0722794364125576   T   T   T
 20.8032508905371536 12.0145022589450274 24.5279248655991609   T   T   T
 14.7283574884967603 -4.2468075946259969 24.5279248655991537   T   T   T
 16.2470808390068591 -0.1814801312332404 24.5279248655991537   T   T   T
 17.7658041895169596  3.8838473321595171 24.5279248655991609   T   T   T
 19.2845275400270566  7.9491747955522731 24.5279248655991537   T   T   T
 -0.8271072542089113 -2.8498891881360287 24.2971185275742698   T   T   T
  0.6916160963011873  1.2154382752567274 24.2971185275742698   T   T   T
  2.2103394468112860  5.2807657386494835 24.2971185275742698   T   T   T
  3.7290627973213852  9.3460932020422405 24.2971185275742698   T   T   T
  5.2477861478314836 13.4114206654349974 24.2971185275742698   T   T   T
  5.2454075980084252 -5.2129425667334237 23.4392157239723531   T   T   T
  6.7641309485185230 -1.1476151033406672 23.4392157239723531   T   T   T
  8.2828542990286209  2.9177123600520884 23.4392157239723531   T   T   T
  9.8015776495387215  6.9830398234448481 23.4392157239723531   T   T   T
 11.3203010000488202 11.0483672868376033 23.4392157239723531   T   T   T
 17.2008184581755614 14.5804303704358826 23.9835702947857499   T   T   T
 11.1259250561351646 -1.6808794831351417 23.9835702947857570   T   T   T
 12.6446484066452633  2.3844479802576140 23.9835702947857570   T   T   T
 14.1633717571553639  6.4497754436503723 23.9835702947857570   T   T   T
 15.6820951076654609 10.5151029070431274 23.9835702947857570   T   T   T
 18.0751790528063978 11.9120213135330939 23.7527639567608730   T   T   T
 12.0002856507660027 -4.3492885400379278 23.7527639567608730   T   T   T
 13.5190090012761015 -0.2839610766451718 23.7527639567608730   T   T   T
 15.0377323517862003  3.7813663867475866 23.7527639567608730   T   T   T
 16.5564557022962973  7.8466938501403414 23.7527639567608730   T   T   T
 12.6960338520596814 10.5130157491127267 21.0309911026938750   T   T   T
  6.6211404500192854 -5.7482941044582985 21.0309911026938750   T   T   T
  8.1398638005293851 -1.6829666410655417 21.0309911026938750   T   T   T
  9.6585871510394838  2.3823608223272150 21.0309911026938750   T   T   T
 11.1773105015495826  6.4476882857199715 21.0309911026938750   T   T   T
  2.5173357602776618 -5.3154235121453528 22.6640548151340724   T   T   T
  4.0360591107877601 -1.2500960487525967 22.6640548151340724   T   T   T
  5.5547824612978598  2.8152314146401602 22.6640548151340724   T   T   T
  7.0735058118079595  6.8805588780329199 22.6640548151340795   T   T   T
  8.5922291623180573 10.9458863414256751 22.6640548151340724   T   T   T
  7.7178685676872245 13.6142953983284549 22.8948611531589563   T   T   T
  1.6429751656468294 -2.6470144552425690 22.8948611531589492   T   T   T
  3.1616985161569282  1.4183130081501880 22.8948611531589492   T   T   T
  4.6804218666670270  5.4836404715429445 22.8948611531589563   T   T   T
  6.1991452171771257  9.5489679349356997 22.8948611531589563   T   T   T
 19.7858997974070832 10.0822323147301809 22.3505065823455524   T   T   T
 13.7110063953666899 -6.1790775388408425 22.3505065823455524   T   T   T
 15.2297297458767886 -2.1137500754480860 22.3505065823455524   T   T   T
 16.7484530963868892  1.9515773879446698 22.3505065823455595   T   T   T
 18.2671764468969862  6.0169048513374257 22.3505065823455524   T   T   T
 -1.8444583473389831 -4.7821591323508752 22.1197002443206756   T   T   T
 -0.3257349968288842 -0.7168316689581191 22.1197002443206756   T   T   T
  1.1929883536812143  3.3484957944346370 22.1197002443206756   T   T   T
  2.7117117041913135  7.4138232578273930 22.1197002443206756   T   T   T
  4.2304350547014122 11.4791507212201509 22.1197002443206756   T   T   T
  4.2280565048783521 -7.1452125109482694 21.2617974407187589   T   T   T
  5.7467798553884508 -3.0798850475555124 21.2617974407187589   T   T   T
  7.2655032058985487  0.9854424158372425 21.2617974407187589   T   T   T
  8.7842265564086492  5.0507698792300006 21.2617974407187589   T   T   T
 10.3029499069187480  9.1160973426227567 21.2617974407187589   T   T   T
 16.1834673650454874 12.6481604262210361 21.8061520115321557   T   T   T
 10.1085739630050924 -3.6131494273499882 21.8061520115321557   T   T   T
 11.6272973135151911  0.4521780360427672 21.8061520115321557   T   T   T
 13.1460206640252899  4.5175054994355266 21.8061520115321557   T   T   T
 14.6647440145353904  8.5828329628282827 21.8061520115321557   T   T   T
 17.0578279596763238  9.9797513693182474 21.5753456735072717   T   T   T
 10.9829345576359305 -6.2815584842527743 21.5753456735072717   T   T   T
 12.5016579081460293 -2.2162310208600182 21.5753456735072717   T   T   T
 14.0203812586561281  1.8490964425327396 21.5753456735072717   T   T   T
 15.5391046091662268  5.9144239059254939 21.5753456735072788   T   T   T
 11.6786827589296092  8.5807458048978766 18.8535728194402665   T   T   T
  5.6037893568892141 -7.6805640486731477 18.8535728194402736   T   T   T
  7.1225127073993129 -3.6152365852803920 18.8535728194402736   T   T   T
  8.6412360579094134  0.4500908781123663 18.8535728194402736   T   T   T
 10.1599594084195122  4.5154183415051232 18.8535728194402736   T   T   T
  1.4999846671475905 -7.2476934563601985 20.4866365318804711   T   T   T
  3.0187080176576897 -3.1823659929674415 20.4866365318804711   T   T   T
  4.5374313681677885  0.8829614704253143 20.4866365318804711   T   T   T
  6.0561547186778881  4.9482889338180724 20.4866365318804711   T   T   T
  7.5748780691879860  9.0136163972108267 20.4866365318804711   T   T   T
  6.7005174745571514 11.6820254541136084 20.7174428699053550   T   T   T
  0.6256240725167566 -4.5792843994574177 20.7174428699053550   T   T   T
  2.1443474230268560 -0.5139569360646606 20.7174428699053550   T   T   T
  3.6630707735369548  3.5513705273280953 20.7174428699053550   T   T   T
  5.1817941240470535  7.6166979907208523 20.7174428699053550   T   T   T
 18.7685487042770127  8.1499623705153326 20.1730882990919511   T   T   T
 12.6936553022366176 -8.1113474830556918 20.1730882990919511   T   T   T
 14.2123786527467146 -4.0460200196629357 20.1730882990919511   T   T   T
 15.7311020032568152  0.0193074437298218 20.1730882990919582   T   T   T
 17.2498253537669122  4.0846349071225783 20.1730882990919511   T   T   T
 -2.8618094404690564 -6.7144290765657253 19.9422819610670672   T   T   T
 -1.3430860899589567 -2.6491016131729674 19.9422819610670672   T   T   T
  0.1756372605511418  1.4162258502197882 19.9422819610670672   T   T   T
  1.6943606110612413  5.4815533136125465 19.9422819610670743   T   T   T
  3.2130839615713396  9.5468807770053008 19.9422819610670672   T   T   T
  3.2107054117482781 -9.0774824551631195 19.0843791574651505   T   T   T
  4.7294287622583777 -5.0121549917703625 19.0843791574651505   T   T   T
  6.2481521127684756 -0.9468275283776073 19.0843791574651505   T   T   T
  7.7668754632785753  3.1184999350151514 19.0843791574651505   T   T   T
  9.2855988137886740  7.1838273984079075 19.0843791574651505   T   T   T
 15.1661162719154134 10.7158904820061878 19.6287337282785543   T   T   T
  9.0912228698750202 -5.5454193715648348 19.6287337282785543   T   T   T
 10.6099462203851171 -1.4800919081720816 19.6287337282785543   T   T   T
 12.1286695708952177  2.5852355552206796 19.6287337282785543   T   T   T
 13.6473929214053165  6.6505630186134335 19.6287337282785543   T   T   T
 16.0404768665462534  8.0474814251033990 19.3979273902536704   T   T   T
  9.9655834645058583 -8.2138284284676235 19.3979273902536704   T   T   T
 11.4843068150159588 -4.1485009650748665 19.3979273902536704   T   T   T
 13.0030301655260576 -0.0831735016821073 19.3979273902536775   T   T   T
 14.5217535160361564  3.9821539617106456 19.3979273902536704   T   T   T
  9.8076246256383861  5.7091795627478712 29.0496977196661561   T   T   T
  9.8076246256383861  8.1091795627478707 29.0496977196661561   T   T   T
 12.2076246256383847  5.7091795627478712 29.0496977196661561   T   T   T
 12.2076246256383847  8.1091795627478707 29.0496977196661561   T   T   T
