Ni Mo C  Ru
 1.0000000000000000
    15.5438991247370097    0.0000000000000000    0.0000000000000010
     0.0000000000000029   17.9485486878466034    0.0000000000000011
     0.0000000000000000    0.0000000000000000   24.5778188426424578
 Ni  Mo  C   Ru 
 208  72  36   2
Selective dynamics
Cartesian
 13.9496530606614222 14.4969047094145633  5.9642461471433865   F   F   F
 15.7431798827464604 12.7710827201985477  5.9642461471433856   F   F   F
 11.5582839645480355 13.8065759137281550  5.9642461471433874   F   F   F
 13.3518107866330755 12.0807539245121358  5.9642461471433839   F   F   F
 15.1453376087181155 10.3549319352961202  5.9642461471433856   F   F   F
  7.3733880463496098 14.8420691072577711  5.9642461471433856   F   F   F
  9.1669148684346489 13.1162471180417501  5.9642461471433830   F   F   F
 10.9604416905196906 11.3904251288257328  5.9642461471433839   F   F   F
 12.7539685126047289  9.6646031396097118  5.9642461471433839   F   F   F
 14.5474953346897671  7.9387811503936918  5.9642461471433830   F   F   F
  4.9820189502362240 14.1517403115713591  5.9642461471433847   F   F   F
  6.7755457723212631 12.4259183223553400  5.9642461471433830   F   F   F
  8.5690725944063004 10.7000963331393226  5.9642461471433830   F   F   F
 10.3625994164913422  8.9742743439233017  5.9642461471433830   F   F   F
 12.1561262385763822  7.2484523547072826  5.9642461471433830   F   F   F
 13.9496530606614186  5.5226303654912625  5.9642461471433856   F   F   F
 15.7431798827464622  3.7968083762752416  5.9642461471433865   F   F   F
  2.5906498541228373 13.4614115158849561  5.9642461471433812   F   F   F
  4.3841766762078764 11.7355895266689352  5.9642461471433821   F   F   F
  6.1777034982929164 10.0097675374529178  5.9642461471433830   F   F   F
  7.9712303203779573  8.2839455482368951  5.9642461471433830   F   F   F
  9.7647571424629955  6.5581235590208768  5.9642461471433856   F   F   F
 11.5582839645480338  4.8323015698048559  5.9642461471433865   F   F   F
 13.3518107866330702  3.1064795805888363  5.9642461471433830   F   F   F
 15.1453376087181137  1.3806575913728167  5.9642461471433830   F   F   F
  1.9928075800944900 11.0452607309825233  5.9642461471433821   F   F   F
  3.7863344021795289  9.3194387417665077  5.9642461471433830   F   F   F
  5.5798612242645698  7.5936167525504867  5.9642461471433812   F   F   F
  7.3733880463496098  5.8677947633344658  5.9642461471433847   F   F   F
  9.1669148684346489  4.1419727741184476  5.9642461471433847   F   F   F
 10.9604416905196889  2.4161507849024288  5.9642461471433830   F   F   F
 12.7539685126047253  0.6903287956864078  5.9642461471433847   F   F   F
 14.5474953346897653 -1.0354931935296114  5.9642461471433830   F   F   F
  1.3949653060661427  8.6291099460800993  5.9642461471433830   F   F   F
  3.1884921281511822  6.9032879568640775  5.9642461471433821   F   F   F
  4.9820189502362231  5.1774659676480583  5.9642461471433821   F   F   F
  6.7755457723212604  3.4516439784320405  5.9642461471433830   F   F   F
  8.5690725944063004  1.7258219892160203  5.9642461471433847   F   F   F
 10.3625994164913404 -0.0000000000000017  5.9642461471433856   F   F   F
 12.1561262385763786 -1.7258219892160205  5.9642461471433856   F   F   F
  0.7971230320377961  6.2129591611776709  5.9642461471433812   F   F   F
  2.5906498541228351  4.4871371719616500  5.9642461471433821   F   F   F
  4.3841766762078747  2.7613151827456304  5.9642461471433839   F   F   F
  6.1777034982929129  1.0354931935296119  5.9642461471433812   F   F   F
  7.9712303203779564 -0.6903287956864077  5.9642461471433830   F   F   F
  9.7647571424629955 -2.4161507849024280  5.9642461471433830   F   F   F
  1.9928075800944880  2.0709863870592233  5.9642461471433803   F   F   F
  3.7863344021795289  0.3451643978432036  5.9642461471433821   F   F   F
  5.5798612242645671 -1.3806575913728163  5.9642461471433812   F   F   F
  1.3949653060661413 -0.3451643978432038  5.9642461471433812   F   F   F
  3.1884921281511818 -2.0709863870592242  5.9642461471433821   F   F   F
  0.7971230320377947 -2.7613151827456321  5.9642461471433812   F   F   F
 14.3482145766803235 13.1162471180417466  7.9965190946908704   F   F   F
 16.1417413987653617 11.3904251288257292  7.9965190946908704   F   F   F
 11.9568454805669315 12.4259183223553400  7.9965190946908731   F   F   F
 13.7503723026519715 10.7000963331393191  7.9965190946908704   F   F   F
 15.5438991247370115  8.9742743439233017  7.9965190946908704   F   F   F
  7.7719495623685084 13.4614115158849525  7.9965190946908695   F   F   F
  9.5654763844535466 11.7355895266689316  7.9965190946908651   F   F   F
 11.3590032065385866 10.0097675374529143  7.9965190946908695   F   F   F
 13.1525300286236231  8.2839455482368951  7.9965190946908695   F   F   F
 14.9460568507086666  6.5581235590208733  7.9965190946908695   F   F   F
  5.3805804662551200 12.7710827201985460  7.9965190946908669   F   F   F
  7.1741072883401626 11.0452607309825233  7.9965190946908677   F   F   F
  8.9676341104251982  9.3194387417665059  7.9965190946908677   F   F   F
 10.7611609325102382  7.5936167525504850  7.9965190946908695   F   F   F
 12.5546877545952800  5.8677947633344658  7.9965190946908677   F   F   F
 14.3482145766803182  4.1419727741184476  7.9965190946908695   F   F   F
 16.1417413987653617  2.4161507849024280  7.9965190946908695   F   F   F
  2.9892113701417351 12.0807539245121358  7.9965190946908669   F   F   F
  4.7827381922267742 10.3549319352961167  7.9965190946908669   F   F   F
  6.5762650143118142  8.6291099460800993  7.9965190946908695   F   F   F
  8.3697918363968551  6.9032879568640810  7.9965190946908677   F   F   F
 10.1633186584818933  5.1774659676480610  7.9965190946908677   F   F   F
 11.9568454805669298  3.4516439784320405  7.9965190946908695   F   F   F
 13.7503723026519697  1.7258219892160198  7.9965190946908677   F   F   F
 15.5438991247370133  0.0000000000000010  7.9965190946908642   F   F   F
  2.3913690961133867  9.6646031396097047  7.9965190946908651   F   F   F
  4.1848959181984275  7.9387811503936918  7.9965190946908669   F   F   F
  5.9784227402834675  6.2129591611776700  7.9965190946908669   F   F   F
  7.7719495623685075  4.4871371719616500  7.9965190946908669   F   F   F
  9.5654763844535449  2.7613151827456295  7.9965190946908669   F   F   F
 11.3590032065385831  1.0354931935296110  7.9965190946908669   F   F   F
 13.1525300286236249 -0.6903287956864096  7.9965190946908695   F   F   F
 14.9460568507086649 -2.4161507849024280  7.9965190946908642   F   F   F
  1.7935268220850400  7.2484523547072834  7.9965190946908669   F   F   F
  3.5870536441700809  5.5226303654912643  7.9965190946908669   F   F   F
  5.3805804662551200  3.7968083762752411  7.9965190946908669   F   F   F
  7.1741072883401591  2.0709863870592229  7.9965190946908669   F   F   F
  8.9676341104251982  0.3451643978432033  7.9965190946908669   F   F   F
 10.7611609325102364 -1.3806575913728172  7.9965190946908677   F   F   F
 12.5546877545952800 -3.1064795805888377  7.9965190946908695   F   F   F
  1.1956845480566938  4.8323015698048541  7.9965190946908660   F   F   F
  2.9892113701417338  3.1064795805888350  7.9965190946908660   F   F   F
  4.7827381922267733  1.3806575913728152  7.9965190946908642   F   F   F
  6.5762650143118133 -0.3451643978432037  7.9965190946908660   F   F   F
  8.3697918363968533 -2.0709863870592242  7.9965190946908660   F   F   F
 10.1633186584818915 -3.7968083762752434  7.9965190946908669   F   F   F
  2.3913690961133867  0.6903287956864077  7.9965190946908660   F   F   F
  4.1848959181984249 -1.0354931935296119  7.9965190946908633   F   F   F
  5.9784227402834667 -2.7613151827456326  7.9965190946908660   F   F   F
  1.7935268220850400 -1.7258219892160205  7.9965190946908642   F   F   F
  3.5870536441700778 -3.4516439784320396  7.9965190946908633   F   F   F
  1.1956845480566929 -4.1419727741184476  7.9965190946908642   F   F   F
 14.7467760926992195 11.7355895266689316 10.0287920422383525   T   T   T
 16.5403029147842560 10.0097675374529143 10.0287920422383507   T   T   T
 12.3554069965858311 11.0452607309825233 10.0287920422383525   T   T   T
 14.1489338186708711  9.3194387417665041 10.0287920422383507   T   T   T
 15.9424606407559111  7.5936167525504850 10.0287920422383507   T   T   T
  8.1705110783874044 12.0807539245121340 10.0287920422383525   T   T   T
  9.9640379004724462 10.3549319352961167 10.0287920422383490   T   T   T
 11.7575647225574826  8.6291099460800993 10.0287920422383507   T   T   T
 13.5510915446425209  6.9032879568640810 10.0287920422383507   T   T   T
 15.3446183667275609  5.1774659676480583 10.0287920422383490   T   T   T
  5.7791419822740169 11.3904251288257292 10.0287920422383490   T   T   T
  7.5726688043590595  9.6646031396097065 10.0287920422383525   T   T   T
  9.3661956264440978  7.9387811503936900 10.0287920422383525   T   T   T
 11.1597224485291360  6.2129591611776691 10.0287920422383525   T   T   T
 12.9532492706141742  4.4871371719616500 10.0287920422383525   T   T   T
 14.7467760926992142  2.7613151827456304 10.0287920422383507   T   T   T
 16.5403029147842560  1.0354931935296108 10.0287920422383525   T   T   T
  3.3877728861606324 10.7000963331393226 10.0287920422383472   T   T   T
  5.1812997082456702  8.9742743439232999 10.0287920422383490   T   T   T
  6.9748265303307111  7.2484523547072834 10.0287920422383490   T   T   T
  8.7683533524157493  5.5226303654912607 10.0287920422383507   T   T   T
 10.5618801745007875  3.7968083762752434 10.0287920422383507   T   T   T
 12.3554069965858258  2.0709863870592238 10.0287920422383472   T   T   T
 14.1489338186708675  0.3451643978432037 10.0287920422383490   T   T   T
 15.9424606407559128 -1.3806575913728154 10.0287920422383507   T   T   T
  2.7899306121322853  8.2839455482368916 10.0287920422383490   T   T   T
  4.5834574342173235  6.5581235590208742 10.0287920422383490   T   T   T
  6.3769842563023653  4.8323015698048559 10.0287920422383490   T   T   T
  8.1705110783874026  3.1064795805888332 10.0287920422383490   T   T   T
  9.9640379004724409  1.3806575913728147 10.0287920422383490   T   T   T
 11.7575647225574844 -0.3451643978432046 10.0287920422383507   T   T   T
 13.5510915446425209 -2.0709863870592247 10.0287920422383490   T   T   T
 15.3446183667275644 -3.7968083762752434 10.0287920422383507   T   T   T
  2.1920883381039382  5.8677947633344676 10.0287920422383490   T   T   T
  3.9856151601889760  4.1419727741184467 10.0287920422383454   T   T   T
  5.7791419822740187  2.4161507849024262 10.0287920422383490   T   T   T
  7.5726688043590578  0.6903287956864071 10.0287920422383490   T   T   T
  9.3661956264440960 -1.0354931935296123 10.0287920422383490   T   T   T
 11.1597224485291342 -2.7613151827456326 10.0287920422383472   T   T   T
 12.9532492706141760 -4.4871371719616526 10.0287920422383490   T   T   T
  1.5942460640755916  3.4516439784320387 10.0287920422383472   T   T   T
  3.3877728861606284  1.7258219892160198 10.0287920422383490   T   T   T
  5.1812997082456702  0.0000000000000007 10.0287920422383490   T   T   T
  6.9748265303307102 -1.7258219892160189 10.0287920422383490   T   T   T
  8.7683533524157493 -3.4516439784320392 10.0287920422383490   T   T   T
 10.5618801745007875 -5.1774659676480592 10.0287920422383472   T   T   T
  2.7899306121322827 -0.6903287956864076 10.0287920422383472   T   T   T
  4.5834574342173244 -2.4161507849024280 10.0287920422383490   T   T   T
  6.3769842563023635 -4.1419727741184484 10.0287920422383490   T   T   T
  2.1920883381039351 -3.1064795805888368 10.0287920422383472   T   T   T
  3.9856151601889773 -4.8323015698048559 10.0287920422383490   T   T   T
  1.5942460640755893 -5.5226303654912643 10.0287920422383472   T   T   T
 15.1453376087181173 10.3549319352961149 12.0610649897858373   T   T   T
 16.9388644308031537  8.6291099460800975 12.0610649897858355   T   T   T
 12.7539685126047306  9.6646031396097065 12.0610649897858391   T   T   T
 14.5474953346897671  7.9387811503936900 12.0610649897858337   T   T   T
 16.3410221567748088  6.2129591611776709 12.0610649897858355   T   T   T
  8.5690725944063022 10.7000963331393226 12.0610649897858355   T   T   T
 10.3625994164913457  8.9742743439232999 12.0610649897858355   T   T   T
 12.1561262385763822  7.2484523547072826 12.0610649897858355   T   T   T
 13.9496530606614186  5.5226303654912643 12.0610649897858337   T   T   T
 15.7431798827464622  3.7968083762752416 12.0610649897858355   T   T   T
  6.1777034982929155 10.0097675374529143 12.0610649897858355   T   T   T
  7.9712303203779555  8.2839455482368916 12.0610649897858355   T   T   T
  9.7647571424629938  6.5581235590208733 12.0610649897858355   T   T   T
 11.5582839645480338  4.8323015698048515 12.0610649897858355   T   T   T
 13.3518107866330737  3.1064795805888332 12.0610649897858302   T   T   T
 15.1453376087181137  1.3806575913728161 12.0610649897858373   T   T   T
 16.9388644308031573 -0.3451643978432039 12.0610649897858355   T   T   T
  3.7863344021795307  9.3194387417665041 12.0610649897858337   T   T   T
  5.5798612242645689  7.5936167525504850 12.0610649897858337   T   T   T
  7.3733880463496080  5.8677947633344676 12.0610649897858355   T   T   T
  9.1669148684346471  4.1419727741184476 12.0610649897858337   T   T   T
 10.9604416905196871  2.4161507849024280 12.0610649897858355   T   T   T
 12.7539685126047271  0.6903287956864090 12.0610649897858320   T   T   T
 14.5474953346897671 -1.0354931935296130 12.0610649897858355   T   T   T
 16.3410221567748088 -2.7613151827456304 12.0610649897858320   T   T   T
  3.1884921281511822  6.9032879568640757 12.0610649897858320   T   T   T
  4.9820189502362213  5.1774659676480601 12.0610649897858284   T   T   T
  6.7755457723212622  3.4516439784320379 12.0610649897858320   T   T   T
  8.5690725944063022  1.7258219892160158 12.0610649897858355   T   T   T
 10.3625994164913404 -0.0000000000000030 12.0610649897858355   T   T   T
 12.1561262385763822 -1.7258219892160198 12.0610649897858320   T   T   T
 13.9496530606614204 -3.4516439784320410 12.0610649897858337   T   T   T
 15.7431798827464622 -5.1774659676480583 12.0610649897858320   T   T   T
  2.5906498541228342  4.4871371719616508 12.0610649897858320   T   T   T
  4.3841766762078747  2.7613151827456313 12.0610649897858284   T   T   T
  6.1777034982929147  1.0354931935296108 12.0610649897858284   T   T   T
  7.9712303203779546 -0.6903287956864068 12.0610649897858320   T   T   T
  9.7647571424629955 -2.4161507849024284 12.0610649897858337   T   T   T
 11.5582839645480320 -4.1419727741184476 12.0610649897858320   T   T   T
 13.3518107866330737 -5.8677947633344694 12.0610649897858337   T   T   T
  1.9928075800944876  2.0709863870592264 12.0610649897858320   T   T   T
  3.7863344021795280  0.3451643978432047 12.0610649897858284   T   T   T
  5.5798612242645680 -1.3806575913728181 12.0610649897858337   T   T   T
  7.3733880463496071 -3.1064795805888341 12.0610649897858320   T   T   T
  9.1669148684346489 -4.8323015698048568 12.0610649897858337   T   T   T
 10.9604416905196835 -6.5581235590208733 12.0610649897858320   T   T   T
  3.1884921281511818 -2.0709863870592251 12.0610649897858320   T   T   T
  4.9820189502362195 -3.7968083762752425 12.0610649897858284   T   T   T
  6.7755457723212587 -5.5226303654912652 12.0610649897858320   T   T   T
  2.5906498541228342 -4.4871371719616517 12.0610649897858320   T   T   T
  4.3841766762078747 -6.2129591611776727 12.0610649897858320   T   T   T
  1.9928075800944871 -6.9032879568640784 12.0610649897858284   T   T   T
  0.4145039766596537  0.7179419475138642 22.5420649897858389   T   T   T
  5.5958036849053228  0.7179419475138642 22.5420649897858389   T   T   T
 10.7771033931509912  0.7179419475138642 22.5420649897858389   T   T   T
  0.4145039766596547  6.7007915101293989 22.5420649897858389   T   T   T
  5.5958036849053236  6.7007915101293989 22.5420649897858389   T   T   T
 10.7771033931509930  6.7007915101293989 22.5420649897858389   T   T   T
  0.4145039766596557 12.6836410727449334 22.5420649897858389   T   T   T
  5.5958036849053245 12.6836410727449334 22.5420649897858389   T   T   T
 10.7771033931509930 12.6836410727449334 22.5420649897858389   T   T   T
  4.7667957315860177  5.2649076151016700 20.1760649897858357   T   T   T
  9.9480954398316861  5.2649076151016700 20.1760649897858357   T   T   T
 15.1293951480773554  5.2649076151016700 20.1760649897858357   T   T   T
  4.7667957315860185 11.2477571777172063 20.1760649897858357   T   T   T
  9.9480954398316879 11.2477571777172063 20.1760649897858357   T   T   T
 15.1293951480773572 11.2477571777172063 20.1760649897858357   T   T   T
  4.7667957315860194 17.2306067403327390 20.1760649897858357   T   T   T
  9.9480954398316896 17.2306067403327390 20.1760649897858357   T   T   T
 15.1293951480773590 17.2306067403327390 20.1760649897858393   T   T   T
  2.1761458774631817  3.7093667288216312 22.5420649897858389   T   T   T
  7.3574455857088514  3.7093667288216312 22.5420649897858389   T   T   T
 12.5387452939545199  3.7093667288216312 22.5420649897858389   T   T   T
  2.1761458774631830  9.6922162914371643 22.5420649897858389   T   T   T
  7.3574455857088523  9.6922162914371643 22.5420649897858389   T   T   T
 12.5387452939545216  9.6922162914371643 22.5420649897858389   T   T   T
  2.1761458774631839 15.6750658540526988 22.5420649897858389   T   T   T
  7.3574455857088532 15.6750658540526988 22.5420649897858389   T   T   T
 12.5387452939545216 15.6750658540526988 22.5420649897858389   T   T   T
  3.0051538307824890  2.2734828337939028 20.1760649897858357   T   T   T
  8.1864535390281574  2.2734828337939028 20.1760649897858357   T   T   T
 13.3677532472738267  2.2734828337939028 20.1760649897858357   T   T   T
  3.0051538307824899  8.2563323964094373 20.1760649897858357   T   T   T
  8.1864535390281592  8.2563323964094373 20.1760649897858357   T   T   T
 13.3677532472738285  8.2563323964094373 20.1760649897858357   T   T   T
  3.0051538307824908 14.2391819590249717 20.1760649897858357   T   T   T
  8.1864535390281592 14.2391819590249717 20.1760649897858357   T   T   T
 13.3677532472738285 14.2391819590249717 20.1760649897858357   T   T   T
  0.4145039766596537  0.7179419475138642 17.8100649897858361   T   T   T
  5.5958036849053228  0.7179419475138642 17.8100649897858361   T   T   T
 10.7771033931509912  0.7179419475138642 17.8100649897858361   T   T   T
  0.4145039766596547  6.7007915101293989 17.8100649897858361   T   T   T
  5.5958036849053236  6.7007915101293989 17.8100649897858361   T   T   T
 10.7771033931509930  6.7007915101293989 17.8100649897858361   T   T   T
  0.4145039766596557 12.6836410727449334 17.8100649897858361   T   T   T
  5.5958036849053245 12.6836410727449334 17.8100649897858361   T   T   T
 10.7771033931509930 12.6836410727449334 17.8100649897858361   T   T   T
  4.7667957315860177  5.2649076151016700 15.4440649897858382   T   T   T
  9.9480954398316861  5.2649076151016700 15.4440649897858400   T   T   T
 15.1293951480773554  5.2649076151016700 15.4440649897858400   T   T   T
  4.7667957315860185 11.2477571777172063 15.4440649897858400   T   T   T
  9.9480954398316879 11.2477571777172063 15.4440649897858400   T   T   T
 15.1293951480773572 11.2477571777172063 15.4440649897858400   T   T   T
  4.7667957315860194 17.2306067403327390 15.4440649897858400   T   T   T
  9.9480954398316896 17.2306067403327390 15.4440649897858400   T   T   T
 15.1293951480773590 17.2306067403327390 15.4440649897858400   T   T   T
  2.1761458774631817  3.7093667288216312 17.8100649897858361   T   T   T
  7.3574455857088514  3.7093667288216312 17.8100649897858361   T   T   T
 12.5387452939545199  3.7093667288216312 17.8100649897858361   T   T   T
  2.1761458774631830  9.6922162914371643 17.8100649897858361   T   T   T
  7.3574455857088523  9.6922162914371643 17.8100649897858361   T   T   T
 12.5387452939545216  9.6922162914371643 17.8100649897858361   T   T   T
  2.1761458774631839 15.6750658540526988 17.8100649897858361   T   T   T
  7.3574455857088532 15.6750658540526988 17.8100649897858361   T   T   T
 12.5387452939545216 15.6750658540526988 17.8100649897858361   T   T   T
  3.0051538307824890  2.2734828337939028 15.4440649897858382   T   T   T
  8.1864535390281574  2.2734828337939028 15.4440649897858382   T   T   T
 13.3677532472738267  2.2734828337939028 15.4440649897858400   T   T   T
  3.0051538307824899  8.2563323964094373 15.4440649897858382   T   T   T
  8.1864535390281592  8.2563323964094373 15.4440649897858400   T   T   T
 13.3677532472738285  8.2563323964094373 15.4440649897858400   T   T   T
  3.0051538307824908 14.2391819590249717 15.4440649897858400   T   T   T
  8.1864535390281592 14.2391819590249717 15.4440649897858400   T   T   T
 13.3677532472738285 14.2391819590249717 15.4440649897858400   T   T   T
  1.2953249270614180  2.1538258425415924 18.9930649897858359   T   T   T
  6.4766246353070871  2.1538258425415924 18.9930649897858359   T   T   T
 11.6579243435527555  2.1538258425415924 18.9930649897858359   T   T   T
  1.2953249270614189  8.1366754051571260 18.9930649897858359   T   T   T
  6.4766246353070880  8.1366754051571260 18.9930649897858359   T   T   T
 11.6579243435527573  8.1366754051571260 18.9930649897858359   T   T   T
  1.2953249270614198 14.1195249677726604 18.9930649897858359   T   T   T
  6.4766246353070898 14.1195249677726604 18.9930649897858359   T   T   T
 11.6579243435527573 14.1195249677726604 18.9930649897858359   T   T   T
  3.8859747811842529  3.8290237200739417 21.3590649897858356   T   T   T
  9.0672744894299235  3.8290237200739417 21.3590649897858356   T   T   T
 14.2485741976755893  3.8290237200739417 21.3590649897858356   T   T   T
  3.8859747811842542  9.8118732826894757 21.3590649897858356   T   T   T
  9.0672744894299253  9.8118732826894757 21.3590649897858356   T   T   T
 14.2485741976755911  9.8118732826894757 21.3590649897858356   T   T   T
  3.8859747811842551 15.7947228453050119 21.3590649897858356   T   T   T
  9.0672744894299253 15.7947228453050119 21.3590649897858356   T   T   T
 14.2485741976755911 15.7947228453050119 21.3590649897858391   T   T   T
  1.2953249270614180  2.1538258425415924 14.2610649897858366   T   T   T
  6.4766246353070871  2.1538258425415924 14.2610649897858366   T   T   T
 11.6579243435527555  2.1538258425415924 14.2610649897858366   T   T   T
  1.2953249270614189  8.1366754051571260 14.2610649897858366   T   T   T
  6.4766246353070880  8.1366754051571260 14.2610649897858384   T   T   T
 11.6579243435527573  8.1366754051571260 14.2610649897858384   T   T   T
  1.2953249270614198 14.1195249677726604 14.2610649897858384   T   T   T
  6.4766246353070898 14.1195249677726604 14.2610649897858384   T   T   T
 11.6579243435527573 14.1195249677726604 14.2610649897858384   T   T   T
  3.8859747811842529  3.8290237200739417 16.6270649897858362   T   T   T
  9.0672744894299235  3.8290237200739417 16.6270649897858362   T   T   T
 14.2485741976755893  3.8290237200739417 16.6270649897858362   T   T   T
  3.8859747811842542  9.8118732826894757 16.6270649897858362   T   T   T
  9.0672744894299253  9.8118732826894757 16.6270649897858362   T   T   T
 14.2485741976755911  9.8118732826894757 16.6270649897858362   T   T   T
  3.8859747811842551 15.7947228453050119 16.6270649897858362   T   T   T
  9.0672744894299253 15.7947228453050119 16.6270649897858362   T   T   T
 14.2485741976755911 15.7947228453050119 16.6270649897858398   T   T   T
  7.2933963571875191  5.6799204708375299 24.3420649897858397   T   T   T
  9.6933963571875186  5.6799204708375299 24.3420649897858397   T   T   T
