Ni Mo C 
 1.0000000000000000
    12.4450793488832367    0.0000000000000000    0.0000000000000008
     3.7335238046649710   28.0221626574395586    0.0000000000000017
     0.0000000000000000    0.0000000000000000   37.1121511817556993
 Ni  Mo  C  
 260 168  84
Selective dynamics
Cartesian
  9.9560634791065876  0.0000000000000016 10.0000000000000000   F   F   F
  7.4670476093299403  0.0000000000000016 10.0000000000000000   F   F   F
  4.9780317395532938  0.0000000000000012 10.0000000000000000   F   F   F
  2.4890158697766469  0.0000000000000006 10.0000000000000036   F   F   F
 -0.0000000000000001  0.0000000000000005 10.0000000000000036   F   F   F
 11.2005714139949113  2.1555509736491985 10.0000000000000000   F   F   F
  8.7115555442182622  2.1555509736491985 10.0000000000000000   F   F   F
  6.2225396744416175  2.1555509736491989 10.0000000000000000   F   F   F
  3.7335238046649710  2.1555509736491993 10.0000000000000000   F   F   F
  1.2445079348883235  2.1555509736491971 10.0000000000000036   F   F   F
 12.4450793488832350  4.3111019472983969 10.0000000000000036   F   F   F
  9.9560634791065894  4.3111019472983969 10.0000000000000000   F   F   F
  7.4670476093299429  4.3111019472983960 10.0000000000000000   F   F   F
  4.9780317395532938  4.3111019472983951 10.0000000000000000   F   F   F
  2.4890158697766469  4.3111019472983951 10.0000000000000000   F   F   F
 11.2005714139949095  6.4666529209475927 10.0000000000000036   F   F   F
  8.7115555442182657  6.4666529209475936 10.0000000000000000   F   F   F
  6.2225396744416193  6.4666529209475936 10.0000000000000000   F   F   F
  3.7335238046649710  6.4666529209475954 10.0000000000000000   F   F   F
  1.2445079348883246  6.4666529209475927 10.0000000000000036   F   F   F
 12.4450793488832350  8.6222038945967903 10.0000000000000000   F   F   F
  9.9560634791065894  8.6222038945967903 10.0000000000000000   F   F   F
  7.4670476093299403  8.6222038945967903 10.0000000000000000   F   F   F
  4.9780317395532938  8.6222038945967903 10.0000000000000000   F   F   F
  2.4890158697766482  8.6222038945967903 10.0000000000000000   F   F   F
 13.6895872837715586 10.7777548682459887 10.0000000000000000   F   F   F
 11.2005714139949148 10.7777548682459887 10.0000000000000000   F   F   F
  8.7115555442182639 10.7777548682459869 10.0000000000000036   F   F   F
  6.2225396744416184 10.7777548682459887 10.0000000000000036   F   F   F
  3.7335238046649719 10.7777548682459869 10.0000000000000036   F   F   F
 12.4450793488832350 12.9333058418951854 10.0000000000000036   F   F   F
  9.9560634791065894 12.9333058418951836 10.0000000000000036   F   F   F
  7.4670476093299420 12.9333058418951854 10.0000000000000036   F   F   F
  4.9780317395532965 12.9333058418951854 10.0000000000000036   F   F   F
  2.4890158697766487 12.9333058418951854 10.0000000000000036   F   F   F
 13.6895872837715604 15.0888568155443856 10.0000000000000000   F   F   F
 11.2005714139949095 15.0888568155443838 10.0000000000000036   F   F   F
  8.7115555442182675 15.0888568155443838 10.0000000000000036   F   F   F
  6.2225396744416184 15.0888568155443838 10.0000000000000036   F   F   F
  3.7335238046649728 15.0888568155443856 10.0000000000000036   F   F   F
 12.4450793488832332 17.2444077891935770 10.0000000000000036   F   F   F
  9.9560634791065876 17.2444077891935770 10.0000000000000036   F   F   F
  7.4670476093299420 17.2444077891935770 10.0000000000000036   F   F   F
  4.9780317395532965 17.2444077891935770 10.0000000000000036   F   F   F
  2.4890158697766478 17.2444077891935770 10.0000000000000036   F   F   F
 13.6895872837715569 19.3999587628427754 10.0000000000000036   F   F   F
 11.2005714139949113 19.3999587628427754 10.0000000000000036   F   F   F
  8.7115555442182639 19.3999587628427754 10.0000000000000036   F   F   F
  6.2225396744416166 19.3999587628427754 10.0000000000000036   F   F   F
  3.7335238046649710 19.3999587628427754 10.0000000000000036   F   F   F
 14.9340952186598805 21.5555097364919739 10.0000000000000036   F   F   F
 12.4450793488832367 21.5555097364919739 10.0000000000000036   F   F   F
  9.9560634791065894 21.5555097364919739 10.0000000000000036   F   F   F
  7.4670476093299403 21.5555097364919739 10.0000000000000036   F   F   F
  4.9780317395532938 21.5555097364919739 10.0000000000000036   F   F   F
 13.6895872837715586 23.7110607101411723 10.0000000000000036   F   F   F
 11.2005714139949148 23.7110607101411723 10.0000000000000036   F   F   F
  8.7115555442182675 23.7110607101411723 10.0000000000000036   F   F   F
  6.2225396744416184 23.7110607101411723 10.0000000000000071   F   F   F
  3.7335238046649710 23.7110607101411723 10.0000000000000071   F   F   F
 14.9340952186598841 25.8666116837903708 10.0000000000000071   F   F   F
 12.4450793488832367 25.8666116837903708 10.0000000000000071   F   F   F
  9.9560634791065912 25.8666116837903708 10.0000000000000071   F   F   F
  7.4670476093299438 25.8666116837903708 10.0000000000000107   F   F   F
  4.9780317395532965 25.8666116837903708 10.0000000000000071   F   F   F
  8.7115555442182657  0.7185169912164010 12.0322729475474830   F   F   F
  6.2225396744416193  0.7185169912164002 12.0322729475474830   F   F   F
  3.7335238046649715  0.7185169912164002 12.0322729475474866   F   F   F
  1.2445079348883241  0.7185169912163997 12.0322729475474866   F   F   F
 11.2005714139949131  0.7185169912164002 12.0322729475474830   F   F   F
  9.9560634791065912  2.8740679648655973 12.0322729475474830   F   F   F
  7.4670476093299394  2.8740679648655978 12.0322729475474830   F   F   F
  4.9780317395532956  2.8740679648655969 12.0322729475474830   F   F   F
  2.4890158697766473  2.8740679648655973 12.0322729475474866   F   F   F
 12.4450793488832350  2.8740679648655956 12.0322729475474901   F   F   F
 11.2005714139949113  5.0296189385147949 12.0322729475474830   F   F   F
  8.7115555442182639  5.0296189385147949 12.0322729475474830   F   F   F
  6.2225396744416193  5.0296189385147967 12.0322729475474866   F   F   F
  3.7335238046649715  5.0296189385147949 12.0322729475474866   F   F   F
  1.2445079348883239  5.0296189385147931 12.0322729475474866   F   F   F
  9.9560634791065912  7.1851699121639916 12.0322729475474866   F   F   F
  7.4670476093299438  7.1851699121639916 12.0322729475474830   F   F   F
  4.9780317395532938  7.1851699121639916 12.0322729475474866   F   F   F
  2.4890158697766482  7.1851699121639916 12.0322729475474866   F   F   F
 12.4450793488832367  7.1851699121639916 12.0322729475474866   F   F   F
 11.2005714139949131  9.3407208858131909 12.0322729475474866   F   F   F
  8.7115555442182657  9.3407208858131909 12.0322729475474866   F   F   F
  6.2225396744416184  9.3407208858131892 12.0322729475474866   F   F   F
  3.7335238046649710  9.3407208858131892 12.0322729475474866   F   F   F
  1.2445079348883255  9.3407208858131927 12.0322729475474866   F   F   F
 12.4450793488832367 11.4962718594623894 12.0322729475474866   F   F   F
  9.9560634791065876 11.4962718594623876 12.0322729475474866   F   F   F
  7.4670476093299412 11.4962718594623876 12.0322729475474901   F   F   F
  4.9780317395532965 11.4962718594623876 12.0322729475474901   F   F   F
  2.4890158697766482 11.4962718594623876 12.0322729475474866   F   F   F
 11.2005714139949148 13.6518228331115861 12.0322729475474866   F   F   F
  8.7115555442182675 13.6518228331115843 12.0322729475474866   F   F   F
  6.2225396744416219 13.6518228331115878 12.0322729475474901   F   F   F
  3.7335238046649724 13.6518228331115843 12.0322729475474866   F   F   F
 13.6895872837715586 13.6518228331115825 12.0322729475474866   F   F   F
 12.4450793488832403 15.8073738067607827 12.0322729475474866   F   F   F
  9.9560634791065894 15.8073738067607827 12.0322729475474866   F   F   F
  7.4670476093299447 15.8073738067607863 12.0322729475474901   F   F   F
  4.9780317395532974 15.8073738067607863 12.0322729475474901   F   F   F
  2.4890158697766505 15.8073738067607863 12.0322729475474901   F   F   F
 11.2005714139949131 17.9629247804099812 12.0322729475474866   F   F   F
  8.7115555442182639 17.9629247804099776 12.0322729475474866   F   F   F
  6.2225396744416184 17.9629247804099812 12.0322729475474901   F   F   F
  3.7335238046649732 17.9629247804099847 12.0322729475474866   F   F   F
 13.6895872837715622 17.9629247804099847 12.0322729475474901   F   F   F
 12.4450793488832367 20.1184757540591761 12.0322729475474866   F   F   F
  9.9560634791065894 20.1184757540591725 12.0322729475474866   F   F   F
  7.4670476093299420 20.1184757540591725 12.0322729475474866   F   F   F
  4.9780317395532947 20.1184757540591725 12.0322729475474901   F   F   F
 14.9340952186598841 20.1184757540591690 12.0322729475474866   F   F   F
 13.6895872837715622 22.2740267277083746 12.0322729475474866   F   F   F
 11.2005714139949166 22.2740267277083746 12.0322729475474901   F   F   F
  8.7115555442182675 22.2740267277083746 12.0322729475474901   F   F   F
  6.2225396744416201 22.2740267277083746 12.0322729475474901   F   F   F
  3.7335238046649724 22.2740267277083746 12.0322729475474901   F   F   F
 12.4450793488832385 24.4295777013575659 12.0322729475474866   F   F   F
  9.9560634791065930 24.4295777013575695 12.0322729475474901   F   F   F
  7.4670476093299447 24.4295777013575695 12.0322729475474901   F   F   F
  4.9780317395532965 24.4295777013575695 12.0322729475474901   F   F   F
 14.9340952186598876 24.4295777013575659 12.0322729475474866   F   F   F
 13.6895872837715622 26.5851286750067715 12.0322729475474830   F   F   F
 11.2005714139949166 26.5851286750067679 12.0322729475474901   F   F   F
  8.7115555442182693 26.5851286750067679 12.0322729475474901   F   F   F
  6.2225396744416201 26.5851286750067679 12.0322729475474901   F   F   F
  3.7335238046649737 26.5851286750067679 12.0322729475474901   F   F   F
  9.9560634791065894  1.4370339824327982 14.0645458950949696   T   T   T
  7.4670476093299412  1.4370339824327973 14.0645458950949696   T   T   T
  4.9780317395532938  1.4370339824327978 14.0645458950949696   T   T   T
  2.4890158697766473  1.4370339824327978 14.0645458950949696   T   T   T
 12.4450793488832332  1.4370339824327982 14.0645458950949696   T   T   T
 11.2005714139949113  3.5925849560819954 14.0645458950949660   T   T   T
  8.7115555442182657  3.5925849560819967 14.0645458950949696   T   T   T
  6.2225396744416175  3.5925849560819958 14.0645458950949696   T   T   T
  3.7335238046649715  3.5925849560819958 14.0645458950949696   T   T   T
  1.2445079348883237  3.5925849560819945 14.0645458950949696   T   T   T
 12.4450793488832367  5.7481359297311929 14.0645458950949696   T   T   T
  9.9560634791065894  5.7481359297311938 14.0645458950949696   T   T   T
  7.4670476093299403  5.7481359297311929 14.0645458950949696   T   T   T
  4.9780317395532938  5.7481359297311929 14.0645458950949696   T   T   T
  2.4890158697766469  5.7481359297311938 14.0645458950949696   T   T   T
 11.2005714139949113  7.9036869033803878 14.0645458950949660   T   T   T
  8.7115555442182639  7.9036869033803878 14.0645458950949696   T   T   T
  6.2225396744416184  7.9036869033803914 14.0645458950949696   T   T   T
  3.7335238046649706  7.9036869033803896 14.0645458950949696   T   T   T
  1.2445079348883241  7.9036869033803878 14.0645458950949696   T   T   T
 12.4450793488832332 10.0592378770295898 14.0645458950949696   T   T   T
  9.9560634791065894 10.0592378770295880 14.0645458950949696   T   T   T
  7.4670476093299412 10.0592378770295898 14.0645458950949696   T   T   T
  4.9780317395532947 10.0592378770295898 14.0645458950949696   T   T   T
  2.4890158697766473 10.0592378770295845 14.0645458950949696   T   T   T
 13.6895872837715569 12.2147888506787883 14.0645458950949696   T   T   T
 11.2005714139949148 12.2147888506787901 14.0645458950949696   T   T   T
  8.7115555442182657 12.2147888506787901 14.0645458950949731   T   T   T
  6.2225396744416184 12.2147888506787883 14.0645458950949731   T   T   T
  3.7335238046649710 12.2147888506787865 14.0645458950949731   T   T   T
 12.4450793488832350 14.3703398243279814 14.0645458950949696   T   T   T
  9.9560634791065894 14.3703398243279779 14.0645458950949696   T   T   T
  7.4670476093299403 14.3703398243279779 14.0645458950949731   T   T   T
  4.9780317395532947 14.3703398243279814 14.0645458950949696   T   T   T
  2.4890158697766482 14.3703398243279832 14.0645458950949731   T   T   T
 13.6895872837715622 16.5258907979771834 14.0645458950949660   T   T   T
 11.2005714139949131 16.5258907979771799 14.0645458950949696   T   T   T
  8.7115555442182711 16.5258907979771834 14.0645458950949660   T   T   T
  6.2225396744416184 16.5258907979771763 14.0645458950949696   T   T   T
  3.7335238046649737 16.5258907979771834 14.0645458950949696   T   T   T
 12.4450793488832367 18.6814417716263783 14.0645458950949660   T   T   T
  9.9560634791065894 18.6814417716263748 14.0645458950949696   T   T   T
  7.4670476093299420 18.6814417716263748 14.0645458950949696   T   T   T
  4.9780317395532956 18.6814417716263748 14.0645458950949696   T   T   T
  2.4890158697766478 18.6814417716263748 14.0645458950949731   T   T   T
 13.6895872837715569 20.8369927452755697 14.0645458950949696   T   T   T
 11.2005714139949113 20.8369927452755697 14.0645458950949696   T   T   T
  8.7115555442182622 20.8369927452755661 14.0645458950949731   T   T   T
  6.2225396744416184 20.8369927452755697 14.0645458950949696   T   T   T
  3.7335238046649710 20.8369927452755697 14.0645458950949731   T   T   T
 14.9340952186598823 22.9925437189247681 14.0645458950949731   T   T   T
 12.4450793488832403 22.9925437189247717 14.0645458950949731   T   T   T
  9.9560634791065894 22.9925437189247717 14.0645458950949731   T   T   T
  7.4670476093299420 22.9925437189247717 14.0645458950949731   T   T   T
  4.9780317395532956 22.9925437189247717 14.0645458950949731   T   T   T
 13.6895872837715569 25.1480946925739737 14.0645458950949731   T   T   T
 11.2005714139949131 25.1480946925739737 14.0645458950949731   T   T   T
  8.7115555442182675 25.1480946925739737 14.0645458950949696   T   T   T
  6.2225396744416193 25.1480946925739737 14.0645458950949731   T   T   T
  3.7335238046649728 25.1480946925739737 14.0645458950949731   T   T   T
 14.9340952186598859 27.3036456662231721 14.0645458950949660   T   T   T
 12.4450793488832367 27.3036456662231686 14.0645458950949696   T   T   T
  9.9560634791065894 27.3036456662231686 14.0645458950949731   T   T   T
  7.4670476093299438 27.3036456662231686 14.0645458950949696   T   T   T
  4.9780317395532983 27.3036456662231686 14.0645458950949731   T   T   T
  9.9560634791065894  0.0000000000000008 16.0968188426424526   T   T   T
  7.4670476093299420  0.0000000000000008 16.0968188426424526   T   T   T
  4.9780317395532938  0.0000000000000008 16.0968188426424526   T   T   T
  2.4890158697766469  0.0000000000000008 16.0968188426424526   T   T   T
  0.0000000000000001  0.0000000000000008 16.0968188426424526   T   T   T
 11.2005714139949095  2.1555509736491993 16.0968188426424526   T   T   T
  8.7115555442182639  2.1555509736491976 16.0968188426424526   T   T   T
  6.2225396744416184  2.1555509736491993 16.0968188426424526   T   T   T
  3.7335238046649715  2.1555509736491980 16.0968188426424526   T   T   T
  1.2445079348883235  2.1555509736491976 16.0968188426424526   T   T   T
 12.4450793488832350  4.3111019472983978 16.0968188426424526   T   T   T
  9.9560634791065894  4.3111019472983960 16.0968188426424526   T   T   T
  7.4670476093299429  4.3111019472983951 16.0968188426424526   T   T   T
  4.9780317395532938  4.3111019472983951 16.0968188426424526   T   T   T
  2.4890158697766469  4.3111019472983951 16.0968188426424526   T   T   T
 11.2005714139949113  6.4666529209475918 16.0968188426424526   T   T   T
  8.7115555442182657  6.4666529209475927 16.0968188426424526   T   T   T
  6.2225396744416175  6.4666529209475927 16.0968188426424526   T   T   T
  3.7335238046649701  6.4666529209475927 16.0968188426424526   T   T   T
  1.2445079348883243  6.4666529209475927 16.0968188426424526   T   T   T
 12.4450793488832350  8.6222038945967903 16.0968188426424490   T   T   T
  9.9560634791065894  8.6222038945967920 16.0968188426424490   T   T   T
  7.4670476093299403  8.6222038945967903 16.0968188426424526   T   T   T
  4.9780317395532956  8.6222038945967903 16.0968188426424526   T   T   T
  2.4890158697766482  8.6222038945967885 16.0968188426424526   T   T   T
 13.6895872837715622 10.7777548682459887 16.0968188426424526   T   T   T
 11.2005714139949166 10.7777548682459905 16.0968188426424526   T   T   T
  8.7115555442182639 10.7777548682459869 16.0968188426424526   T   T   T
  6.2225396744416184 10.7777548682459869 16.0968188426424526   T   T   T
  3.7335238046649706 10.7777548682459869 16.0968188426424526   T   T   T
 12.4450793488832350 12.9333058418951854 16.0968188426424526   T   T   T
  9.9560634791065894 12.9333058418951854 16.0968188426424526   T   T   T
  7.4670476093299429 12.9333058418951854 16.0968188426424526   T   T   T
  4.9780317395532956 12.9333058418951854 16.0968188426424526   T   T   T
  2.4890158697766487 12.9333058418951854 16.0968188426424526   T   T   T
 13.6895872837715658 15.0888568155443927 16.0968188426424526   T   T   T
 11.2005714139949113 15.0888568155443856 16.0968188426424526   T   T   T
  8.7115555442182693 15.0888568155443856 16.0968188426424526   T   T   T
  6.2225396744416175 15.0888568155443838 16.0968188426424561   T   T   T
  3.7335238046649737 15.0888568155443892 16.0968188426424561   T   T   T
 12.4450793488832350 17.2444077891935770 16.0968188426424526   T   T   T
  9.9560634791065894 17.2444077891935770 16.0968188426424526   T   T   T
  7.4670476093299429 17.2444077891935770 16.0968188426424526   T   T   T
  4.9780317395532965 17.2444077891935841 16.0968188426424526   T   T   T
  2.4890158697766478 17.2444077891935770 16.0968188426424526   T   T   T
 13.6895872837715569 19.3999587628427754 16.0968188426424561   T   T   T
 11.2005714139949131 19.3999587628427719 16.0968188426424490   T   T   T
  8.7115555442182639 19.3999587628427719 16.0968188426424526   T   T   T
  6.2225396744416166 19.3999587628427754 16.0968188426424526   T   T   T
  3.7335238046649710 19.3999587628427754 16.0968188426424526   T   T   T
 14.9340952186598859 21.5555097364919739 16.0968188426424561   T   T   T
 12.4450793488832350 21.5555097364919739 16.0968188426424561   T   T   T
  9.9560634791065894 21.5555097364919739 16.0968188426424526   T   T   T
  7.4670476093299429 21.5555097364919739 16.0968188426424526   T   T   T
  4.9780317395532947 21.5555097364919739 16.0968188426424526   T   T   T
 13.6895872837715586 23.7110607101411723 16.0968188426424561   T   T   T
 11.2005714139949113 23.7110607101411723 16.0968188426424561   T   T   T
  8.7115555442182657 23.7110607101411723 16.0968188426424561   T   T   T
  6.2225396744416201 23.7110607101411723 16.0968188426424526   T   T   T
  3.7335238046649710 23.7110607101411723 16.0968188426424526   T   T   T
 14.9340952186598876 25.8666116837903743 16.0968188426424561   T   T   T
 12.4450793488832367 25.8666116837903708 16.0968188426424561   T   T   T
  9.9560634791065912 25.8666116837903708 16.0968188426424561   T   T   T
  7.4670476093299447 25.8666116837903708 16.0968188426424561   T   T   T
  4.9780317395532983 25.8666116837903708 16.0968188426424526   T   T   T
  3.0047412504928990 20.7367342619879018 24.8448331933006514   T   T   T
  8.8717072292521362 24.7399003559078423 24.8448331933006550   T   T   T
  3.7158886418576547 12.7304020741480333 24.8448331933006443   T   T   T
  9.5828546206168941 16.7335681680679720 24.8448331933006443   T   T   T
 -1.4399299455368291  0.7209037923882238 24.8448331933006514   T   T   T
  4.4270360332224099  4.7240698863081603 24.8448331933006514   T   T   T
 -2.1510773369015883  8.7272359802280963 24.8448331933006479   T   T   T
  1.1601193902995390 19.9960166783510331 27.1121511817556957   T   T   T
  7.0270853690587760 23.9991827722709736 27.1121511817556957   T   T   T
  1.8712667816642914 11.9896844905111575 27.1121511817556993   T   T   T
  7.7382327604235357 15.9928505844310980 27.1121511817556957   T   T   T
  9.1605275431530462 -0.0198137912486504 27.1121511817556993   T   T   T
  2.5824141730290480  3.9833523026712858 27.1121511817556993   T   T   T
  8.4493801517882900  7.9865183965912223 27.1121511817556957   T   T   T
  5.9293255663302666 20.4295965913610615 25.0987728080076131   T   T   T
 -0.6487878037937342 24.4327626852809985 25.0987728080076131   T   T   T
  6.6404729576950192 12.4232644035211859 25.0987728080076131   T   T   T
  0.0623595875710263 16.4264304974411210 25.0987728080076131   T   T   T
  1.4846543703005348  0.4137661217613771 25.0987728080076131   T   T   T
  7.3516203490597745  4.4169322156813120 25.0987728080076131   T   T   T
  0.7735069789357794  8.4200983096012507 25.0987728080076131   T   T   T
  8.4938824063092717 21.8242170987489246 25.6006058561189995   T   T   T
  1.9157690361852733 25.8273831926688686 25.6006058561189995   T   T   T
  9.2050297976740243 13.8178849109090560 25.6006058561189995   T   T   T
  2.6269164275500323 17.8210510048289912 25.6006058561189995   T   T   T
  4.0492112102795419  1.8083866291492434 25.6006058561189995   T   T   T
 -2.5289021598444554  5.8115527230691795 25.6006058561189995   T   T   T
  3.3380638189147840  9.8147188169891173 25.6006058561189995   T   T   T
  0.4401844105138926 19.3421137546000352 24.3430001451892650   T   T   T
  6.3071503892731293 23.3452798485199757 24.3430001451892650   T   T   T
  1.1513318018786456 11.3357815667601649 24.3430001451892650   T   T   T
  7.0182977806378855 15.3389476606801018 24.3430001451892650   T   T   T
 -0.2709629808508671 27.3484459424399091 24.3430001451892650   T   T   T
  1.8624791932434022  3.3294493789202928 24.3430001451892650   T   T   T
  7.7294451720026416  7.3326154728402306 24.3430001451892650   T   T   T
  8.1160575833664037 18.9085338415900104 26.3563785189373476   T   T   T
  1.5379442132424037 22.9116999355099509 26.3563785189373476   T   T   T
  8.8272049747311563 10.9022016537501383 26.3563785189373476   T   T   T
  2.2490916046071603 14.9053677476700752 26.3563785189373476   T   T   T
  7.4049101920016493 26.9148660294298807 26.3563785189373512   T   T   T
  9.5383523660959142  2.8958694659102662 26.3563785189373476   T   T   T
  2.9602389959719178  6.8990355598302013 26.3563785189373476   T   T   T
  5.5515007433873951 17.5139133342021402 25.8545454708259683   T   T   T
 11.4184667221466345 21.5170794281220843 25.8545454708259719   T   T   T
  6.2626481347521530  9.5075811463622735 25.8545454708259683   T   T   T
 -0.3154652353718421 13.5107472402822086 25.8545454708259683   T   T   T
  4.8403533520226398 25.5202455220420212 25.8545454708259612   T   T   T
  6.9737955261169073  1.5012489585223985 25.8545454708259683   T   T   T
  0.3956821559929119  5.5044150524423356 25.8545454708259648   T   T   T
 11.0406418992037718 18.6013961709631630 26.6103181336443164   T   T   T
  4.4625285290797745 22.6045622648830999 26.6103181336443164   T   T   T
 -0.6932900583147086 10.5950639831232927 26.6103181336443164   T   T   T
  5.1736759204445306 14.5982300770432261 26.6103181336443164   T   T   T
 10.3294945078390121 26.6077283588030404 26.6103181336443200   T   T   T
  0.0178573330500408  2.5887317952834201 26.6103181336443164   T   T   T
  5.8848233118092850  6.5918978892033557 26.6103181336443164   T   T   T
 -0.6397780451301145 20.3899690088637549 21.8217425420272484   T   T   T
  5.2271879336291240 24.3931351027836953 21.8217425420272519   T   T   T
  0.0713693462346416 12.3836368210238863 21.8217425420272448   T   T   T
  5.9383353249938757 16.3868029149438179 21.8217425420272448   T   T   T
 -5.0844492411598434  0.3741385392640768 21.8217425420272519   T   T   T
  0.7825167375993960  4.3773046331840142 21.8217425420272448   T   T   T
 -5.7955966325246013  8.3804707271039494 21.8217425420272448   T   T   T
 -2.4843999053234755 19.6492514252268862 24.0890605304822962   T   T   T
  3.3825660734357625 23.6524175191468231 24.0890605304822962   T   T   T
 -1.7732525139587225 11.6429192373870105 24.0890605304822962   T   T   T
  4.0937134648005218 15.6460853313069492 24.0890605304822962   T   T   T
  5.5160082475300305 -0.3665790443727965 24.0890605304822962   T   T   T
 -1.0621051225939659  3.6365870495471384 24.0890605304822962   T   T   T
  4.8048608561652735  7.6397531434670753 24.0890605304822962   T   T   T
  2.2848062707072505 20.0828313382369110 22.0756821567342136   T   T   T
 -4.2933070994167482 24.0859974321568480 22.0756821567342136   T   T   T
  2.9959536620720035 12.0764991503970389 22.0756821567342136   T   T   T
 -3.5821597080519907 16.0796652443169741 22.0756821567342136   T   T   T
 -2.1598649253224798  0.0670008686372296 22.0756821567342136   T   T   T
  3.7071010534367592  4.0701669625571650 22.0756821567342136   T   T   T
 -2.8710123166872359  8.0733330564771020 22.0756821567342136   T   T   T
  4.8493631106862569 21.4774518456247776 22.5775152048456000   T   T   T
 -1.7287502594377413 25.4806179395447181 22.5775152048456000   T   T   T
  5.5605105020510095 13.4711196577849055 22.5775152048455929   T   T   T
 -1.0176028680729829 17.4742857517048442 22.5775152048455965   T   T   T
  0.4046919146565280  1.4616213760250973 22.5775152048456000   T   T   T
 -6.1734214554674685  5.4647874699450343 22.5775152048455965   T   T   T
 -0.3064554767082293  9.4679535638649703 22.5775152048455929   T   T   T
 -3.2043348851091209 18.9953485014758883 21.3199094939158620   T   T   T
  2.6626310936501159 22.9985145953958288 21.3199094939158655   T   T   T
 -2.4931874937443670 10.9890163136360179 21.3199094939158655   T   T   T
  3.3737784850148707 14.9921824075559549 21.3199094939158620   T   T   T
 -3.9154822764738801 27.0016806893157657 21.3199094939158655   T   T   T
 -1.7820401023796104  2.9826841257961467 21.3199094939158620   T   T   T
  4.0849258763796286  6.9858502197160828 21.3199094939158620   T   T   T
  4.4715382877433880 18.5617685884658634 23.3332878676639481   T   T   T
 -2.1065750823806124 22.5649346823858004 23.3332878676639481   T   T   T
  5.1826856791081424 10.5554364006259913 23.3332878676639481   T   T   T
 -1.3954276910158534 14.5586024945459265 23.3332878676639481   T   T   T
  3.7603908963786337 26.5681007763057373 23.3332878676639481   T   T   T
  5.8938330704728994  2.5491042127861196 23.3332878676639481   T   T   T
 -0.6842802996510968  6.5522703067060553 23.3332878676639481   T   T   T
  1.9069814477643823 17.1671480810779933 22.8314548195525617   T   T   T
  7.7739474265236215 21.1703141749979373 22.8314548195525688   T   T   T
  2.6181288391291391  9.1608158932381247 22.8314548195525617   T   T   T
 -3.9599845309948596 13.1639819871580599 22.8314548195525617   T   T   T
  1.1958340563996250 25.1734802689178743 22.8314548195525617   T   T   T
  3.3292762304938943  1.1544837053982520 22.8314548195525617   T   T   T
 -3.2488371396301021  5.1576497993181878 22.8314548195525617   T   T   T
  7.3961226035807570 18.2546309178390160 23.5872274823709134   T   T   T
  0.8180092334567584 22.2577970117589565 23.5872274823709134   T   T   T
 -4.3378093539377254 10.2482987299991439 23.5872274823709134   T   T   T
  1.5291566248215109 14.2514648239190791 23.5872274823709098   T   T   T
  6.6849752122159991 26.2609631056788935 23.5872274823709134   T   T   T
 -3.6266619625729728  2.2419665421592723 23.5872274823709134   T   T   T
  2.2403040161862671  6.2451326360792088 23.5872274823709098   T   T   T
 -4.2842973407531328 20.0432037557396150 18.7986518907538454   T   T   T
  1.5826686380061088 24.0463698496595484 18.7986518907538454   T   T   T
 -3.5731499493883709 12.0368715678997393 18.7986518907538454   T   T   T
  2.2938160293708632 16.0400376618196709 18.7986518907538454   T   T   T
 -8.7289685367828564  0.0273732861399298 18.7986518907538454   T   T   T
 -2.8620025580236184  4.0305393800598663 18.7986518907538454   T   T   T
 -9.4401159281476197  8.0337054739798042 18.7986518907538454   T   T   T
 -6.1289192009464895 19.3024861721027357 21.0659698792088967   T   T   T
 -0.2619532221872491 23.3056522660226726 21.0659698792088967   T   T   T
 -5.4177718095817360 11.2961539842628635 21.0659698792088967   T   T   T
  0.4491941691775043 15.2993200781827987 21.0659698792088896   T   T   T
  1.8714889519070188 -0.7133442974969439 21.0659698792088967   T   T   T
 -4.7066244182169799  3.2898217964229919 21.0659698792088967   T   T   T
  1.1603415605422580  7.2929878903429275 21.0659698792088896   T   T   T
 -1.3597130249157643 19.7360660851127641 19.0525915054608070   T   T   T
 -7.9378263950397621 23.7392321790327010 19.0525915054608070   T   T   T
 -0.6485656335510095 11.7297338972728937 19.0525915054608070   T   T   T
 -7.2266790036750059 15.7328999911928289 19.0525915054608070   T   T   T
 -5.8043842209454954 -0.2797643844869174 19.0525915054608070   T   T   T
  0.0625817578137437  3.7234017094330203 19.0525915054608070   T   T   T
 -6.5155316123102507  7.7265678033529550 19.0525915054608070   T   T   T
  1.2048438150632423 21.1306865925006306 19.5544245535721934   T   T   T
 -5.3732695550607579 25.1338526864205711 19.5544245535721934   T   T   T
  1.9159912064279943 13.1243544046607603 19.5544245535721934   T   T   T
 -4.6621221636959991 17.1275204985806973 19.5544245535721934   T   T   T
 -3.2398273809664881  1.1148561229009499 19.5544245535721934   T   T   T
 -9.8179407510904841  5.1180222168208864 19.5544245535721934   T   T   T
 -3.9509747723312438  9.1211883107408216 19.5544245535721934   T   T   T
 -6.8488541807321379 18.6485832483517413 18.2968188426424589   T   T   T
 -0.9818882019728981 22.6517493422716818 18.2968188426424589   T   T   T
 -6.1377067893673853 10.6422510605118728 18.2968188426424589   T   T   T
 -0.2707408106081430 14.6454171544318097 18.2968188426424589   T   T   T
 -7.5600015720968994 26.6549154361916187 18.2968188426424589   T   T   T
 -5.4265593980026301  2.6359188726719989 18.2968188426424589   T   T   T
  0.4404065807566107  6.6390849665919376 18.2968188426424589   T   T   T
  0.8270189921203750 18.2150033353417165 20.3101972163905415   T   T   T
 -5.7510943780036285 22.2181694292616534 20.3101972163905486   T   T   T
  1.5381663834851280 10.2086711475018443 20.3101972163905415   T   T   T
 -5.0399469866388680 14.2118372414217795 20.3101972163905415   T   T   T
  0.1158716007556198 26.2213355231815868 20.3101972163905415   T   T   T
  2.2493137748498873  2.2023389596619718 20.3101972163905486   T   T   T
 -4.3287995952741101  6.2055050535819074 20.3101972163905415   T   T   T
 -1.7375378478586345 16.8203828279538499 19.8083641682791622   T   T   T
  4.1294281309006085 20.8235489218737868 19.8083641682791622   T   T   T
 -1.0263904564938771  8.8140506401139778 19.8083641682791622   T   T   T
 -7.6045038266178722 12.8172167340339129 19.8083641682791622   T   T   T
 -2.4486852392233907 24.8267150157937273 19.8083641682791622   T   T   T
 -0.3152430651291189  0.8077184522741047 19.8083641682791622   T   T   T
 -6.8933564352531187  4.8108845461940408 19.8083641682791622   T   T   T
  3.7516033079577431 17.9078656647148726 20.5641368310975103   T   T   T
 -2.8265100621662542 21.9110317586348060 20.5641368310975103   T   T   T
 -7.9823286495607402  9.9015334768749970 20.5641368310975103   T   T   T
 -2.1153626708015034 13.9046995707949321 20.5641368310975103   T   T   T
  3.0404559165929812 25.9141978525547430 20.5641368310975103   T   T   T
 -7.2711812581959885  1.8952012890351255 20.5641368310975103   T   T   T
 -1.4042152794367455  5.8983673829550609 20.5641368310975103   T   T   T
  4.2781209969401495 19.1253237980950246 25.3496893320633099   T   T   T
 10.1450869756993889 23.1284898920149686 25.3496893320633099   T   T   T
  4.9892683883049038 11.1189916102551525 25.3496893320633063   T   T   T
 -1.5888449818190917 15.1221577041750912 25.3496893320633063   T   T   T
  3.5669736055753920 27.1316559859348949 25.3496893320633063   T   T   T
  5.7004157796696582  3.1126594224152786 25.3496893320633063   T   T   T
 -0.8776975904543384  7.1158255163352155 25.3496893320633063   T   T   T
  9.7672621527565209 20.2128066348560438 26.1054619948816580   T   T   T
  3.1891487826325284 24.2159727287759878 26.1054619948816544   T   T   T
 10.4784095441212752 12.2064744470161752 26.1054619948816544   T   T   T
  3.9002961739972806 16.2096405409361104 26.1054619948816544   T   T   T
  5.3225909567267928  0.1969761652563637 26.1054619948816580   T   T   T
 -1.2555224133972058  4.2001422591763014 26.1054619948816544   T   T   T
  4.6114435653620349  8.2033083530962365 26.1054619948816544   T   T   T
  6.4782054676945222 22.2143896818160158 26.1054619948816544   T   T   T
 12.3451714464537687 26.2175557757359492 26.1054619948816580   T   T   T
  7.1893528590592783 14.2080574939761402 26.1054619948816544   T   T   T
  0.6112394889352855 18.2112235878960789 26.1054619948816544   T   T   T
  2.0335342716647942  2.1985592122163315 26.1054619948816580   T   T   T
  7.9005002504240318  6.2017253061362680 26.1054619948816580   T   T   T
  1.3223868803000352 10.2048914000562050 26.1054619948816580   T   T   T
  7.5671776820021472 17.1237407511350561 25.3496893320633063   T   T   T
  0.9890643118781506 21.1269068450550002 25.3496893320633063   T   T   T
  8.2783250733668989  9.1174085632951822 25.3496893320633063   T   T   T
  1.7002117032429040 13.1205746572151192 25.3496893320633063   T   T   T
  6.8560302906373884 25.1300729389749300 25.3496893320633063   T   T   T
 -3.4556068841515826  1.1110763754553115 25.3496893320633063   T   T   T
  2.4113590946076586  5.1142424693752462 25.3496893320633063   T   T   T
  0.6336017013171340 18.7785585449708776 22.3265986807899068   T   T   T
  6.5005676800763741 22.7817246388908181 22.3265986807899068   T   T   T
  1.3447490926818886 10.7722263571310055 22.3265986807899068   T   T   T
 -5.2333642774421048 14.7753924510509442 22.3265986807899033   T   T   T
 -0.0775456900476232 26.7848907328107479 22.3265986807899068   T   T   T
  2.0558964840466438  2.7658941692911321 22.3265986807899068   T   T   T
 -4.5222168860773495  6.7690602632110703 22.3265986807899033   T   T   T
  6.1227428571335061 19.8660413817318968 23.0823713436082549   T   T   T
 -0.4553705129904912 23.8692074756518373 23.0823713436082549   T   T   T
  6.8338902484982613 11.8597091938920283 23.0823713436082549   T   T   T
  0.2557768783742647 15.8628752878119599 23.0823713436082549   T   T   T
  1.6780716611037778 -0.1497890878677833 23.0823713436082549   T   T   T
 -4.9000417090202202  3.8533770060521535 23.0823713436082549   T   T   T
  0.9669242697390198  7.8565430999720904 23.0823713436082549   T   T   T
  2.8336861720715083 21.8676244286918688 23.0823713436082549   T   T   T
  8.7006521508307504 25.8707905226118022 23.0823713436082585   T   T   T
  3.5448335634362635 13.8612922408519914 23.0823713436082549   T   T   T
 -3.0332798066877311 17.8644583347719319 23.0823713436082549   T   T   T
 -1.6109850239582213  1.8517939590921850 23.0823713436082549   T   T   T
  4.2559809548010188  5.8549600530121220 23.0823713436082549   T   T   T
 -2.3221324153229808  9.8581261469320580 23.0823713436082549   T   T   T
  3.9226583863791320 16.7769754980109091 22.3265986807899068   T   T   T
 -2.6554549837448649 20.7801415919308461 22.3265986807899033   T   T   T
  4.6338057777438877  8.7706433101710388 22.3265986807899068   T   T   T
 -1.9443075923801110 12.7738094040909740 22.3265986807898997   T   T   T
  3.2115109950143732 24.7833076858507795 22.3265986807899068   T   T   T
 -7.1001261797745938  0.7643111223311646 22.3265986807899068   T   T   T
 -1.2331602010153531  4.7674772162511010 22.3265986807899033   T   T   T
 -3.0109175943058815 18.4317932918467307 19.3035080295165038   T   T   T
  2.8560483844533602 22.4349593857666711 19.3035080295165002   T   T   T
 -2.2997702029411249 10.4254611040068585 19.3035080295165002   T   T   T
 -8.8778835730651195 14.4286271979267973 19.3035080295165002   T   T   T
 -3.7220649856706354 26.4381254796866045 19.3035080295165038   T   T   T
 -1.5886228115763712  2.4191289161669847 19.3035080295165002   T   T   T
 -8.1667361817003652  6.4222950100869216 19.3035080295165002   T   T   T
  2.4782235615104908 19.5192761286077499 20.0592806923348554   T   T   T
 -4.0998898086135034 23.5224422225276868 20.0592806923348554   T   T   T
  3.1893709528752456 11.5129439407678795 20.0592806923348483   T   T   T
 -3.3887424172487486 15.5161100346878147 20.0592806923348483   T   T   T
 -1.9664476345192363 -0.4965543409919302 20.0592806923348554   T   T   T
 -8.5445610046432368  3.5066117529280070 20.0592806923348519   T   T   T
 -2.6775950258839951  7.5097778468479435 20.0592806923348483   T   T   T
 -0.8108331235515056 21.5208591755677183 20.0592806923348554   T   T   T
  5.0561328552077400 25.5240252694876553 20.0592806923348554   T   T   T
 -0.0996857321867490 13.5145269877278480 20.0592806923348554   T   T   T
 -6.6777991023107450 17.5176930816477849 20.0592806923348483   T   T   T
 -5.2555043195812328  1.5050287059680378 20.0592806923348554   T   T   T
  0.6114616591780015  5.5081947998879750 20.0592806923348483   T   T   T
 -5.9666517109459907  9.5113608938079111 20.0592806923348554   T   T   T
  0.2781390907561172 16.4302102448867622 19.3035080295165038   T   T   T
 -6.2999742793678806 20.4333763388066991 19.3035080295165002   T   T   T
  0.9892864821208732  8.4238780570468919 19.3035080295165002   T   T   T
 -5.5888268880031280 12.4270441509668270 19.3035080295165002   T   T   T
 -0.4330083006086385 24.4365424327266361 19.3035080295165038   T   T   T
 -10.7446454753976095  0.4175458692070175 19.3035080295165002   T   T   T
 -4.8776794966383683  4.4207119631269540 19.3035080295165002   T   T   T
