Mo B  Mo B  Mo B  Mo B  Mo B  Mo B  Mo B  Mo B  Mo B  Mo B  Mo B  Mo B  Mo B  Mo B  Mo B  Mo B  Mo
 1.0000000000000000
    57.1390999999999991    0.0000000000000000    0.0000000000000035
     0.0000000000000010    6.2324000000000002    0.0000000000000004
     0.0000000000000000    0.0000000000000000   66.3550895999999852
 Mo  B   Mo  B   Mo  B   Mo  B   Mo  B   Mo  B   Mo  B   Mo  B   Mo  B   Mo  B   Mo  B   Mo  B   Mo  B   Mo  B   Mo  B   Mo  B   Mo 
  40   8   8   8   8   8   8   8   8   8   8   8   8   8   8   8   8   8   8   8   8   8   8   8   8   8   8   8   8   8   8   8  32
Selective dynamics
Cartesian
 21.5580999999999996  0.0000000000000000 25.5833723999999982   F   F   F
 21.5580999999999996  1.5581000000000000 21.3360723999999955   F   F   F
 20.0000000000000000  0.0000000000000000 19.5352171999999982   F   F   F
 21.5580999999999996  0.0000000000000000 32.2771171999999922   F   F   F
 20.0000000000000000  1.5581000000000000 17.0887723999999963   F   F   F
 20.0000000000000000  1.5581000000000000 23.7825171999999974   F   F   F
 21.5580999999999996  1.5581000000000000 28.0298171999999965   F   F   F
 20.0000000000000000  0.0000000000000000 29.8306724000000010   F   F   F
 21.5580999999999996  0.0000000000000000 42.5725723999999985   T   T   T
 21.5580999999999996  1.5581000000000000 38.3252723999999887   T   T   T
 20.0000000000000000  0.0000000000000000 36.5244171999999878   T   T   T
 21.5580999999999996  0.0000000000000000 49.2663171999999889   T   T   T
 20.0000000000000000  1.5581000000000000 34.0779723999999931   T   T   T
 20.0000000000000000  1.5581000000000000 40.7717171999999977   T   T   T
 21.5580999999999996  1.5581000000000000 45.0190171999999933   T   T   T
 20.0000000000000000  0.0000000000000000 46.8198723999999942   T   T   T
 21.5580999999999996  3.1162000000000001 25.5833723999999982   F   F   F
 21.5580999999999996  4.6743000000000006 21.3360723999999955   F   F   F
 20.0000000000000000  3.1162000000000001 19.5352171999999982   F   F   F
 21.5580999999999996  3.1162000000000001 32.2771171999999922   F   F   F
 20.0000000000000000  4.6743000000000006 17.0887723999999963   F   F   F
 20.0000000000000000  4.6743000000000006 23.7825171999999974   F   F   F
 21.5580999999999996  4.6743000000000006 28.0298171999999965   F   F   F
 20.0000000000000000  3.1162000000000001 29.8306724000000010   F   F   F
 21.5580999999999996  3.1162000000000001 42.5725723999999985   T   T   T
 21.5580999999999996  4.6743000000000006 38.3252723999999887   T   T   T
 20.0000000000000000  3.1162000000000001 36.5244171999999878   T   T   T
 21.5580999999999996  3.1162000000000001 49.2663171999999889   T   T   T
 20.0000000000000000  4.6743000000000006 34.0779723999999931   T   T   T
 20.0000000000000000  4.6743000000000006 40.7717171999999977   T   T   T
 21.5580999999999996  4.6743000000000006 45.0190171999999933   T   T   T
 20.0000000000000000  3.1162000000000001 46.8198723999999942   T   T   T
 24.6743000000000023  0.0000000000000000 25.5833723999999982   F   F   F
 24.6743000000000023  1.5581000000000000 21.3360723999999955   F   F   F
 23.1161999999999992  0.0000000000000000 19.5352171999999982   F   F   F
 24.6743000000000023  0.0000000000000000 32.2771171999999922   F   F   F
 23.1161999999999992  1.5581000000000000 17.0887723999999963   F   F   F
 23.1161999999999992  1.5581000000000000 23.7825171999999974   F   F   F
 24.6743000000000023  1.5581000000000000 28.0298171999999965   F   F   F
 23.1161999999999992  0.0000000000000000 29.8306724000000010   F   F   F
 24.6743000000000023  0.0000000000000000 22.9500463999999980   F   F   F
 24.6743000000000023  1.5581000000000000 18.7027463999999988   F   F   F
 23.1161999999999992  0.0000000000000000 22.1685431999999984   F   F   F
 24.6743000000000023  0.0000000000000000 17.9212431999999993   F   F   F
 23.1161999999999992  1.5581000000000000 31.4446463999999999   F   F   F
 23.1161999999999992  1.5581000000000000 26.4158431999999976   F   F   F
 24.6743000000000023  1.5581000000000000 30.6631431999999968   F   F   F
 23.1161999999999992  0.0000000000000000 27.1973463999999971   F   F   F
 24.6743000000000023  0.0000000000000000 42.5725723999999985   T   T   T
 24.6743000000000023  1.5581000000000000 38.3252723999999887   T   T   T
 23.1161999999999992  0.0000000000000000 36.5244171999999878   T   T   T
 24.6743000000000023  0.0000000000000000 49.2663171999999889   T   T   T
 23.1161999999999992  1.5581000000000000 34.0779723999999931   T   T   T
 23.1161999999999992  1.5581000000000000 40.7717171999999977   T   T   T
 24.6743000000000023  1.5581000000000000 45.0190171999999933   T   T   T
 23.1161999999999992  0.0000000000000000 46.8198723999999942   T   T   T
 24.6743000000000023  0.0000000000000000 39.9392463999999876   T   T   T
 24.6743000000000023  1.5581000000000000 35.6919463999999920   T   T   T
 23.1161999999999992  0.0000000000000000 39.1577431999999988   T   T   T
 24.6743000000000023  0.0000000000000000 34.9104431999999889   T   T   T
 23.1161999999999992  1.5581000000000000 48.4338463999999931   T   T   T
 23.1161999999999992  1.5581000000000000 43.4050431999999944   T   T   T
 24.6743000000000023  1.5581000000000000 47.6523431999999900   T   T   T
 23.1161999999999992  0.0000000000000000 44.1865463999999974   T   T   T
 24.6743000000000023  3.1162000000000001 25.5833723999999982   F   F   F
 24.6743000000000023  4.6743000000000006 21.3360723999999955   F   F   F
 23.1161999999999992  3.1162000000000001 19.5352171999999982   F   F   F
 24.6743000000000023  3.1162000000000001 32.2771171999999922   F   F   F
 23.1161999999999992  4.6743000000000006 17.0887723999999963   F   F   F
 23.1161999999999992  4.6743000000000006 23.7825171999999974   F   F   F
 24.6743000000000023  4.6743000000000006 28.0298171999999965   F   F   F
 23.1161999999999992  3.1162000000000001 29.8306724000000010   F   F   F
 24.6743000000000023  3.1162000000000001 22.9500463999999980   F   F   F
 24.6743000000000023  4.6743000000000006 18.7027463999999988   F   F   F
 23.1161999999999992  3.1162000000000001 22.1685431999999984   F   F   F
 24.6743000000000023  3.1162000000000001 17.9212431999999993   F   F   F
 23.1161999999999992  4.6743000000000006 31.4446463999999999   F   F   F
 23.1161999999999992  4.6743000000000006 26.4158431999999976   F   F   F
 24.6743000000000023  4.6743000000000006 30.6631431999999968   F   F   F
 23.1161999999999992  3.1162000000000001 27.1973463999999971   F   F   F
 24.6743000000000023  3.1162000000000001 42.5725723999999985   T   T   T
 24.6743000000000023  4.6743000000000006 38.3252723999999887   T   T   T
 23.1161999999999992  3.1162000000000001 36.5244171999999878   T   T   T
 24.6743000000000023  3.1162000000000001 49.2663171999999889   T   T   T
 23.1161999999999992  4.6743000000000006 34.0779723999999931   T   T   T
 23.1161999999999992  4.6743000000000006 40.7717171999999977   T   T   T
 24.6743000000000023  4.6743000000000006 45.0190171999999933   T   T   T
 23.1161999999999992  3.1162000000000001 46.8198723999999942   T   T   T
 24.6743000000000023  3.1162000000000001 39.9392463999999876   T   T   T
 24.6743000000000023  4.6743000000000006 35.6919463999999920   T   T   T
 23.1161999999999992  3.1162000000000001 39.1577431999999988   T   T   T
 24.6743000000000023  3.1162000000000001 34.9104431999999889   T   T   T
 23.1161999999999992  4.6743000000000006 48.4338463999999931   T   T   T
 23.1161999999999992  4.6743000000000006 43.4050431999999944   T   T   T
 24.6743000000000023  4.6743000000000006 47.6523431999999900   T   T   T
 23.1161999999999992  3.1162000000000001 44.1865463999999974   T   T   T
 27.7905000000000015  0.0000000000000000 25.5833723999999982   F   F   F
 27.7905000000000015  1.5581000000000000 21.3360723999999955   F   F   F
 26.2323999999999984  0.0000000000000000 19.5352171999999982   F   F   F
 27.7905000000000015  0.0000000000000000 32.2771171999999922   F   F   F
 26.2323999999999984  1.5581000000000000 17.0887723999999963   F   F   F
 26.2323999999999984  1.5581000000000000 23.7825171999999974   F   F   F
 27.7905000000000015  1.5581000000000000 28.0298171999999965   F   F   F
 26.2323999999999984  0.0000000000000000 29.8306724000000010   F   F   F
 27.7905000000000015  0.0000000000000000 22.9500463999999980   F   F   F
 27.7905000000000015  1.5581000000000000 18.7027463999999988   F   F   F
 26.2323999999999984  0.0000000000000000 22.1685431999999984   F   F   F
 27.7905000000000015  0.0000000000000000 17.9212431999999993   F   F   F
 26.2323999999999984  1.5581000000000000 31.4446463999999999   F   F   F
 26.2323999999999984  1.5581000000000000 26.4158431999999976   F   F   F
 27.7905000000000015  1.5581000000000000 30.6631431999999968   F   F   F
 26.2323999999999984  0.0000000000000000 27.1973463999999971   F   F   F
 27.7905000000000015  0.0000000000000000 42.5725723999999985   T   T   T
 27.7905000000000015  1.5581000000000000 38.3252723999999887   T   T   T
 26.2323999999999984  0.0000000000000000 36.5244171999999878   T   T   T
 27.7905000000000015  0.0000000000000000 49.2663171999999889   T   T   T
 26.2323999999999984  1.5581000000000000 34.0779723999999931   T   T   T
 26.2323999999999984  1.5581000000000000 40.7717171999999977   T   T   T
 27.7905000000000015  1.5581000000000000 45.0190171999999933   T   T   T
 26.2323999999999984  0.0000000000000000 46.8198723999999942   T   T   T
 27.7905000000000015  0.0000000000000000 39.9392463999999876   T   T   T
 27.7905000000000015  1.5581000000000000 35.6919463999999920   T   T   T
 26.2323999999999984  0.0000000000000000 39.1577431999999988   T   T   T
 27.7905000000000015  0.0000000000000000 34.9104431999999889   T   T   T
 26.2323999999999984  1.5581000000000000 48.4338463999999931   T   T   T
 26.2323999999999984  1.5581000000000000 43.4050431999999944   T   T   T
 27.7905000000000015  1.5581000000000000 47.6523431999999900   T   T   T
 26.2323999999999984  0.0000000000000000 44.1865463999999974   T   T   T
 27.7905000000000015  3.1162000000000001 25.5833723999999982   F   F   F
 27.7905000000000015  4.6743000000000006 21.3360723999999990   F   F   F
 26.2324000000000019  3.1162000000000001 19.5352171999999982   F   F   F
 27.7905000000000015  3.1162000000000001 32.2771171999999922   F   F   F
 26.2324000000000019  4.6743000000000006 17.0887723999999963   F   F   F
 26.2324000000000019  4.6743000000000006 23.7825171999999974   F   F   F
 27.7905000000000015  4.6743000000000006 28.0298171999999965   F   F   F
 26.2324000000000019  3.1162000000000001 29.8306724000000010   F   F   F
 27.7905000000000015  3.1162000000000001 22.9500463999999980   F   F   F
 27.7905000000000015  4.6743000000000006 18.7027463999999988   F   F   F
 26.2324000000000019  3.1162000000000001 22.1685431999999984   F   F   F
 27.7905000000000015  3.1162000000000001 17.9212431999999993   F   F   F
 26.2324000000000019  4.6743000000000006 31.4446463999999999   F   F   F
 26.2324000000000019  4.6743000000000006 26.4158431999999976   F   F   F
 27.7905000000000015  4.6743000000000006 30.6631431999999968   F   F   F
 26.2324000000000019  3.1162000000000001 27.1973463999999971   F   F   F
 27.7905000000000015  3.1162000000000001 42.5725723999999985   T   T   T
 27.7905000000000015  4.6743000000000006 38.3252723999999887   T   T   T
 26.2324000000000019  3.1162000000000001 36.5244171999999878   T   T   T
 27.7905000000000015  3.1162000000000001 49.2663171999999889   T   T   T
 26.2324000000000019  4.6743000000000006 34.0779723999999931   T   T   T
 26.2324000000000019  4.6743000000000006 40.7717171999999977   T   T   T
 27.7905000000000015  4.6743000000000006 45.0190171999999933   T   T   T
 26.2324000000000019  3.1162000000000001 46.8198723999999942   T   T   T
 27.7905000000000015  3.1162000000000001 39.9392463999999876   T   T   T
 27.7905000000000015  4.6743000000000006 35.6919463999999920   T   T   T
 26.2324000000000019  3.1162000000000001 39.1577431999999988   T   T   T
 27.7905000000000015  3.1162000000000001 34.9104431999999889   T   T   T
 26.2324000000000019  4.6743000000000006 48.4338463999999931   T   T   T
 26.2324000000000019  4.6743000000000006 43.4050431999999944   T   T   T
 27.7905000000000015  4.6743000000000006 47.6523431999999900   T   T   T
 26.2324000000000019  3.1162000000000001 44.1865463999999974   T   T   T
 30.9067000000000007  0.0000000000000000 25.5833723999999982   F   F   F
 30.9067000000000007  1.5581000000000000 21.3360723999999990   F   F   F
 29.3486000000000011  0.0000000000000000 19.5352171999999982   F   F   F
 30.9067000000000007  0.0000000000000000 32.2771171999999922   F   F   F
 29.3486000000000011  1.5581000000000000 17.0887723999999963   F   F   F
 29.3486000000000011  1.5581000000000000 23.7825171999999974   F   F   F
 30.9067000000000007  1.5581000000000000 28.0298171999999965   F   F   F
 29.3486000000000011  0.0000000000000000 29.8306724000000010   F   F   F
 30.9067000000000007  0.0000000000000000 22.9500463999999980   F   F   F
 30.9067000000000007  1.5581000000000000 18.7027463999999988   F   F   F
 29.3486000000000011  0.0000000000000000 22.1685431999999984   F   F   F
 30.9067000000000007  0.0000000000000000 17.9212431999999993   F   F   F
 29.3486000000000011  1.5581000000000000 31.4446463999999999   F   F   F
 29.3486000000000011  1.5581000000000000 26.4158431999999976   F   F   F
 30.9067000000000007  1.5581000000000000 30.6631431999999968   F   F   F
 29.3486000000000011  0.0000000000000000 27.1973463999999971   F   F   F
 30.9067000000000007  0.0000000000000000 42.5725723999999985   T   T   T
 30.9067000000000007  1.5581000000000000 38.3252723999999887   T   T   T
 29.3486000000000011  0.0000000000000000 36.5244171999999878   T   T   T
 30.9067000000000007  0.0000000000000000 49.2663171999999889   T   T   T
 29.3486000000000011  1.5581000000000000 34.0779723999999931   T   T   T
 29.3486000000000011  1.5581000000000000 40.7717171999999977   T   T   T
 30.9067000000000007  1.5581000000000000 45.0190171999999933   T   T   T
 29.3486000000000011  0.0000000000000000 46.8198723999999942   T   T   T
 30.9067000000000007  0.0000000000000000 39.9392463999999876   T   T   T
 30.9067000000000007  1.5581000000000000 35.6919463999999920   T   T   T
 29.3486000000000011  0.0000000000000000 39.1577431999999988   T   T   T
 30.9067000000000007  0.0000000000000000 34.9104431999999889   T   T   T
 29.3486000000000011  1.5581000000000000 48.4338463999999931   T   T   T
 29.3486000000000011  1.5581000000000000 43.4050431999999944   T   T   T
 30.9067000000000007  1.5581000000000000 47.6523431999999900   T   T   T
 29.3486000000000011  0.0000000000000000 44.1865463999999974   T   T   T
 30.9067000000000007  3.1162000000000001 25.5833723999999982   F   F   F
 30.9067000000000007  4.6743000000000006 21.3360723999999990   F   F   F
 29.3486000000000011  3.1162000000000001 19.5352171999999982   F   F   F
 30.9067000000000007  3.1162000000000001 32.2771171999999922   F   F   F
 29.3486000000000011  4.6743000000000006 17.0887723999999963   F   F   F
 29.3486000000000011  4.6743000000000006 23.7825171999999974   F   F   F
 30.9067000000000007  4.6743000000000006 28.0298171999999965   F   F   F
 29.3486000000000011  3.1162000000000001 29.8306724000000010   F   F   F
 30.9067000000000007  3.1162000000000001 22.9500463999999980   F   F   F
 30.9067000000000007  4.6743000000000006 18.7027463999999988   F   F   F
 29.3486000000000011  3.1162000000000001 22.1685431999999984   F   F   F
 30.9067000000000007  3.1162000000000001 17.9212431999999993   F   F   F
 29.3486000000000011  4.6743000000000006 31.4446463999999999   F   F   F
 29.3486000000000011  4.6743000000000006 26.4158431999999976   F   F   F
 30.9067000000000007  4.6743000000000006 30.6631431999999968   F   F   F
 29.3486000000000011  3.1162000000000001 27.1973463999999971   F   F   F
 30.9067000000000007  3.1162000000000001 42.5725723999999985   T   T   T
 30.9067000000000007  4.6743000000000006 38.3252723999999887   T   T   T
 29.3486000000000011  3.1162000000000001 36.5244171999999878   T   T   T
 30.9067000000000007  3.1162000000000001 49.2663171999999889   T   T   T
 29.3486000000000011  4.6743000000000006 34.0779723999999931   T   T   T
 29.3486000000000011  4.6743000000000006 40.7717171999999977   T   T   T
 30.9067000000000007  4.6743000000000006 45.0190171999999933   T   T   T
 29.3486000000000011  3.1162000000000001 46.8198723999999942   T   T   T
 30.9067000000000007  3.1162000000000001 39.9392463999999876   T   T   T
 30.9067000000000007  4.6743000000000006 35.6919463999999920   T   T   T
 29.3486000000000011  3.1162000000000001 39.1577431999999988   T   T   T
 30.9067000000000007  3.1162000000000001 34.9104431999999889   T   T   T
 29.3486000000000011  4.6743000000000006 48.4338463999999931   T   T   T
 29.3486000000000011  4.6743000000000006 43.4050431999999944   T   T   T
 30.9067000000000007  4.6743000000000006 47.6523431999999900   T   T   T
 29.3486000000000011  3.1162000000000001 44.1865463999999974   T   T   T
 34.0228999999999999  0.0000000000000000 25.5833723999999982   F   F   F
 34.0228999999999999  1.5581000000000000 21.3360723999999990   F   F   F
 32.4647999999999968  0.0000000000000000 19.5352171999999982   F   F   F
 34.0228999999999999  0.0000000000000000 32.2771171999999922   F   F   F
 32.4647999999999968  1.5581000000000000 17.0887723999999963   F   F   F
 32.4647999999999968  1.5581000000000000 23.7825171999999974   F   F   F
 34.0228999999999999  1.5581000000000000 28.0298171999999965   F   F   F
 32.4647999999999968  0.0000000000000000 29.8306724000000010   F   F   F
 34.0228999999999999  0.0000000000000000 22.9500463999999980   F   F   F
 34.0228999999999999  1.5581000000000000 18.7027463999999988   F   F   F
 32.4647999999999968  0.0000000000000000 22.1685431999999984   F   F   F
 34.0228999999999999  0.0000000000000000 17.9212431999999993   F   F   F
 32.4647999999999968  1.5581000000000000 31.4446463999999999   F   F   F
 32.4647999999999968  1.5581000000000000 26.4158431999999976   F   F   F
 34.0228999999999999  1.5581000000000000 30.6631431999999968   F   F   F
 32.4647999999999968  0.0000000000000000 27.1973463999999971   F   F   F
 34.0228999999999999  0.0000000000000000 42.5725723999999985   T   T   T
 34.0228999999999999  1.5581000000000000 38.3252723999999887   T   T   T
 32.4647999999999968  0.0000000000000000 36.5244171999999878   T   T   T
 34.0228999999999999  0.0000000000000000 49.2663171999999889   T   T   T
 32.4647999999999968  1.5581000000000000 34.0779723999999931   T   T   T
 32.4647999999999968  1.5581000000000000 40.7717171999999977   T   T   T
 34.0228999999999999  1.5581000000000000 45.0190171999999933   T   T   T
 32.4647999999999968  0.0000000000000000 46.8198723999999942   T   T   T
 34.0228999999999999  0.0000000000000000 39.9392463999999876   T   T   T
 34.0228999999999999  1.5581000000000000 35.6919463999999920   T   T   T
 32.4647999999999968  0.0000000000000000 39.1577431999999988   T   T   T
 34.0228999999999999  0.0000000000000000 34.9104431999999889   T   T   T
 32.4647999999999968  1.5581000000000000 48.4338463999999931   T   T   T
 32.4647999999999968  1.5581000000000000 43.4050431999999944   T   T   T
 34.0228999999999999  1.5581000000000000 47.6523431999999900   T   T   T
 32.4647999999999968  0.0000000000000000 44.1865463999999974   T   T   T
 34.0228999999999999  3.1162000000000001 25.5833723999999982   F   F   F
 34.0228999999999999  4.6743000000000006 21.3360723999999990   F   F   F
 32.4647999999999968  3.1162000000000001 19.5352171999999982   F   F   F
 34.0228999999999999  3.1162000000000001 32.2771171999999922   F   F   F
 32.4647999999999968  4.6743000000000006 17.0887723999999999   F   F   F
 32.4647999999999968  4.6743000000000006 23.7825171999999974   F   F   F
 34.0228999999999999  4.6743000000000006 28.0298172000000001   F   F   F
 32.4647999999999968  3.1162000000000001 29.8306724000000010   F   F   F
 34.0228999999999999  3.1162000000000001 22.9500463999999980   F   F   F
 34.0228999999999999  4.6743000000000006 18.7027463999999988   F   F   F
 32.4647999999999968  3.1162000000000001 22.1685431999999984   F   F   F
 34.0228999999999999  3.1162000000000001 17.9212431999999993   F   F   F
 32.4647999999999968  4.6743000000000006 31.4446463999999999   F   F   F
 32.4647999999999968  4.6743000000000006 26.4158432000000012   F   F   F
 34.0228999999999999  4.6743000000000006 30.6631431999999968   F   F   F
 32.4647999999999968  3.1162000000000001 27.1973464000000007   F   F   F
 34.0228999999999999  3.1162000000000001 42.5725723999999985   T   T   T
 34.0228999999999999  4.6743000000000006 38.3252723999999887   T   T   T
 32.4647999999999968  3.1162000000000001 36.5244171999999878   T   T   T
 34.0228999999999999  3.1162000000000001 49.2663171999999889   T   T   T
 32.4647999999999968  4.6743000000000006 34.0779723999999931   T   T   T
 32.4647999999999968  4.6743000000000006 40.7717171999999977   T   T   T
 34.0228999999999999  4.6743000000000006 45.0190171999999933   T   T   T
 32.4647999999999968  3.1162000000000001 46.8198723999999942   T   T   T
 34.0228999999999999  3.1162000000000001 39.9392463999999876   T   T   T
 34.0228999999999999  4.6743000000000006 35.6919463999999920   T   T   T
 32.4647999999999968  3.1162000000000001 39.1577431999999988   T   T   T
 34.0228999999999999  3.1162000000000001 34.9104431999999889   T   T   T
 32.4647999999999968  4.6743000000000006 48.4338463999999931   T   T   T
 32.4647999999999968  4.6743000000000006 43.4050431999999944   T   T   T
 34.0228999999999999  4.6743000000000006 47.6523431999999900   T   T   T
 32.4647999999999968  3.1162000000000001 44.1865463999999974   T   T   T
 37.1390999999999991  0.0000000000000000 25.5833723999999982   F   F   F
 37.1390999999999991  1.5581000000000000 21.3360723999999990   F   F   F
 35.5810000000000031  0.0000000000000000 19.5352171999999982   F   F   F
 37.1390999999999991  0.0000000000000000 32.2771171999999922   F   F   F
 35.5810000000000031  1.5581000000000000 17.0887723999999999   F   F   F
 35.5810000000000031  1.5581000000000000 23.7825171999999974   F   F   F
 37.1390999999999991  1.5581000000000000 28.0298172000000001   F   F   F
 35.5810000000000031  0.0000000000000000 29.8306724000000010   F   F   F
 37.1390999999999991  0.0000000000000000 42.5725723999999985   T   T   T
 37.1390999999999991  1.5581000000000000 38.3252723999999887   T   T   T
 35.5810000000000031  0.0000000000000000 36.5244171999999878   T   T   T
 37.1390999999999991  0.0000000000000000 49.2663171999999889   T   T   T
 35.5810000000000031  1.5581000000000000 34.0779723999999931   T   T   T
 35.5810000000000031  1.5581000000000000 40.7717171999999977   T   T   T
 37.1390999999999991  1.5581000000000000 45.0190171999999933   T   T   T
 35.5810000000000031  0.0000000000000000 46.8198723999999942   T   T   T
 37.1390999999999991  3.1162000000000001 25.5833723999999982   F   F   F
 37.1390999999999991  4.6743000000000006 21.3360723999999990   F   F   F
 35.5810000000000031  3.1162000000000001 19.5352171999999982   F   F   F
 37.1390999999999991  3.1162000000000001 32.2771171999999922   F   F   F
 35.5810000000000031  4.6743000000000006 17.0887723999999999   F   F   F
 35.5810000000000031  4.6743000000000006 23.7825171999999974   F   F   F
 37.1390999999999991  4.6743000000000006 28.0298172000000001   F   F   F
 35.5810000000000031  3.1162000000000001 29.8306724000000010   F   F   F
 37.1390999999999991  3.1162000000000001 42.5725723999999985   T   T   T
 37.1390999999999991  4.6743000000000006 38.3252723999999887   T   T   T
 35.5810000000000031  3.1162000000000001 36.5244171999999878   T   T   T
 37.1390999999999991  3.1162000000000001 49.2663171999999889   T   T   T
 35.5810000000000031  4.6743000000000006 34.0779723999999931   T   T   T
 35.5810000000000031  4.6743000000000006 40.7717171999999977   T   T   T
 37.1390999999999991  4.6743000000000006 45.0190171999999933   T   T   T
 35.5810000000000031  3.1162000000000001 46.8198723999999942   T   T   T
