Ni Mo S 
 1.0000000000000000
    19.4398353902495771    0.0000000000000000    0.0000000000000012
     9.7199176951247921   16.8353912933439069    0.0000000000000012
     0.0000000000000000    0.0000000000000000   38.8751404852849021
 Ni  Mo  S  
 244  74 148
Selective dynamics
Cartesian
 27.0882952159215336 15.4554411873321147 10.2187851213212326   F   F   F
 24.8574944334338781 16.5594012721415496 10.2187851213212291   F   F   F
 25.0168373464687122 14.0754910813203207 10.2187851213212326   F   F   F
 25.1761802595035462 11.5915808904990865 10.2187851213212326   F   F   F
 22.7860365639810496 15.1794511661297555 10.2187851213212326   F   F   F
 22.9453794770158837 12.6955409753085213 10.2187851213212362   F   F   F
 23.1047223900507177 10.2116307844872871 10.2187851213212326   F   F   F
 23.2640653030855482  7.7277205936660565 10.2187851213212326   F   F   F
 20.5552357814933941 16.2834112509391922 10.2187851213212326   F   F   F
 20.7145786945282282 13.7995010601179597 10.2187851213212362   F   F   F
 20.8739216075630551 11.3155908692967255 10.2187851213212326   F   F   F
 21.0332645205978928  8.8316806784754949 10.2187851213212326   F   F   F
 21.1926074336327233  6.3477704876542598 10.2187851213212326   F   F   F
 21.3519503466675609  3.8638602968330304 10.2187851213212326   F   F   F
 18.4837779120405727 14.9034611449273946 10.2187851213212326   F   F   F
 18.6431208250754068 12.4195509541061639 10.2187851213212326   F   F   F
 18.8024637381102373  9.9356407632849280 10.2187851213212291   F   F   F
 18.9618066511450714  7.4517305724636973 10.2187851213212326   F   F   F
 19.1211495641799054  4.9678203816424666 10.2187851213212326   F   F   F
 19.2804924772147395  2.4839101908212342 10.2187851213212291   F   F   F
 16.2529771295529173 16.0074212297368312 10.2187851213212326   F   F   F
 16.4123200425877513 13.5235110389155953 10.2187851213212326   F   F   F
 16.5716629556225818 11.0396008480943628 10.2187851213212291   F   F   F
 16.7310058686574195  8.5556906572731375 10.2187851213212291   F   F   F
 16.8903487816922535  6.0717804664519024 10.2187851213212291   F   F   F
 17.0496916947270840  3.5878702756306713 10.2187851213212291   F   F   F
 17.2090346077619110  1.1039600848094369 10.2187851213212326   F   F   F
 14.1815192601001012 14.6274711237250372 10.2187851213212326   F   F   F
 14.3408621731349246 12.1435609329037995 10.2187851213212326   F   F   F
 14.5002050861697569  9.6596507420825688 10.2187851213212326   F   F   F
 14.6595479992045945  7.1757405512613381 10.2187851213212326   F   F   F
 14.8188909122394250  4.6918303604401066 10.2187851213212326   F   F   F
 14.9782338252742591  2.2079201696188737 10.2187851213212326   F   F   F
 11.9507184776124422 15.7314312085344721 10.2187851213212326   F   F   F
 12.1100613906472709 13.2475210177132379 10.2187851213212326   F   F   F
 12.2694043036821085 10.7636108268920072 10.2187851213212326   F   F   F
 12.4287472167169391  8.2797006360707748 10.2187851213212291   F   F   F
 12.5880901297517731  5.7957904452495441 10.2187851213212326   F   F   F
 12.7474330427866072  3.3118802544283104 10.2187851213212326   F   F   F
 12.9067759558214377  0.8279700636070774 10.2187851213212291   F   F   F
  9.8792606081596155 14.3514811025226763 10.2187851213212291   F   F   F
 10.0386035211944495 11.8675709117014438 10.2187851213212326   F   F   F
 10.1979464342292800  9.3836607208802114 10.2187851213212291   F   F   F
 10.3572893472641141  6.8997505300589790 10.2187851213212291   F   F   F
 10.5166322602989446  4.4158403392377465 10.2187851213212291   F   F   F
 10.6759751733337804  1.9319301484165141 10.2187851213212291   F   F   F
  7.8078027387067932 12.9715309965108787 10.2187851213212326   F   F   F
  7.9671456517416264 10.4876208056896481 10.2187851213212291   F   F   F
  8.1264885647764586  8.0037106148684138 10.2187851213212291   F   F   F
  8.2858314778112909  5.5198004240471823 10.2187851213212291   F   F   F
  8.4451743908461250  3.0358902332259521 10.2187851213212291   F   F   F
  8.6045173038809555  0.5519800424047184 10.2187851213212291   F   F   F
  5.8956877822888050  9.1076706996778523 10.2187851213212291   F   F   F
  6.0550306953236355  6.6237605088566180 10.2187851213212291   F   F   F
  6.2143736083584713  4.1398503180353874 10.2187851213212291   F   F   F
  6.3737165213933018  1.6559401272141556 10.2187851213212291   F   F   F
  3.9835728258708123  5.2438104028448231 10.2187851213212291   F   F   F
  4.1429157389056464  2.7599002120235916 10.2187851213212291   F   F   F
  4.3022586519404786  0.2759900212023594 10.2187851213212291   F   F   F
  2.0714578694528236  1.3799501060117958 10.2187851213212291   F   F   F
  0.0000000000000004  0.0000000000000005 10.2187851213212291   F   F   F
 26.4509235637822044 14.1674877550544398 12.2510580688687156   F   F   F
 24.2201227812945490 15.2714478398638747 12.2510580688687121   F   F   F
 24.3794656943293830 12.7875376490426387 12.2510580688687156   F   F   F
 24.5388086073642171 10.3036274582214133 12.2510580688687192   F   F   F
 22.1486649118417276 13.8914977338520842 12.2510580688687192   F   F   F
 22.3080078248765545 11.4075875430308429 12.2510580688687121   F   F   F
 22.4673507379113850  8.9236773522096122 12.2510580688687156   F   F   F
 22.6266936509462191  6.4397671613883833 12.2510580688687156   F   F   F
 19.9178641293540650 14.9954578186615155 12.2510580688687156   F   F   F
 20.0772070423888991 12.5115476278402848 12.2510580688687156   F   F   F
 20.2365499554237296 10.0276374370190489 12.2510580688687156   F   F   F
 20.3958928684585636  7.5437272461978200 12.2510580688687156   F   F   F
 20.5552357814933977  5.0598170553765858 12.2510580688687156   F   F   F
 20.7145786945282282  2.5759068645553529 12.2510580688687156   F   F   F
 17.8464062599012436 13.6155077126497179 12.2510580688687156   F   F   F
 18.0057491729360777 11.1315975218284891 12.2510580688687156   F   F   F
 18.1650920859709046  8.6476873310072548 12.2510580688687156   F   F   F
 18.3244349990057422  6.1637771401860215 12.2510580688687156   F   F   F
 18.4837779120405763  3.6798669493647904 12.2510580688687156   F   F   F
 18.6431208250754068  1.1959567585435567 12.2510580688687156   F   F   F
 15.6156054774135882 14.7194677974591546 12.2510580688687156   F   F   F
 15.7749483904484222 12.2355576066379204 12.2510580688687156   F   F   F
 15.9342913034832527  9.7516474158166915 12.2510580688687156   F   F   F
 16.0936342165180868  7.2677372249954608 12.2510580688687156   F   F   F
 16.2529771295529208  4.7838270341742266 12.2510580688687156   F   F   F
 16.4123200425877549  2.2999168433529955 12.2510580688687156   F   F   F
 26.2915806507473704 16.6513979458756687 12.2510580688687156   F   F   F
 13.5441476079607668 13.3395176914473623 12.2510580688687156   F   F   F
 13.7034905209956008 10.8556075006261263 12.2510580688687156   F   F   F
 13.8628334340304313  8.3716973098048957 12.2510580688687156   F   F   F
 14.0221763470652618  5.8877871189836624 12.2510580688687156   F   F   F
 14.1815192601000994  3.4038769281624313 12.2510580688687121   F   F   F
 14.3408621731349335  0.9199667373411982 12.2510580688687156   F   F   F
 11.3133468254731149 14.4434777762567972 12.2510580688687156   F   F   F
 11.4726897385079418 11.9595675854355648 12.2510580688687156   F   F   F
 11.6320326515427759  9.4756573946143288 12.2510580688687156   F   F   F
 11.7913755645776099  6.9917472037930981 12.2510580688687121   F   F   F
 11.9507184776124440  4.5078370129718692 12.2510580688687156   F   F   F
 12.1100613906472745  2.0239268221506359 12.2510580688687121   F   F   F
 21.9893219988068935 16.3754079246733077 12.2510580688687156   F   F   F
  9.2418889560202846 13.0635276702449996 12.2510580688687156   F   F   F
  9.4012318690551187 10.5796174794237690 12.2510580688687156   F   F   F
  9.5605747820899509  8.0957072886025365 12.2510580688687121   F   F   F
  9.7199176951247850  5.6117970977813050 12.2510580688687121   F   F   F
  9.8792606081596190  3.1278869069600717 12.2510580688687121   F   F   F
 10.0386035211944513  0.6439767161388397 12.2510580688687121   F   F   F
  7.1704310865674641 11.6835775642332056 12.2510580688687121   F   F   F
  7.3297739996022973  9.1996673734119714 12.2510580688687121   F   F   F
  7.4891169126371286  6.7157571825907389 12.2510580688687121   F   F   F
  7.6484598256719618  4.2318469917695074 12.2510580688687121   F   F   F
  7.8078027387067941  1.7479368009482759 12.2510580688687121   F   F   F
 17.6870633468664167 16.0994179034709504 12.2510580688687156   F   F   F
  5.2583161301494759  7.8197172674001783 12.2510580688687121   F   F   F
  5.4176590431843064  5.3358070765789440 12.2510580688687121   F   F   F
  5.5770019562191404  2.8518968857577121 12.2510580688687121   F   F   F
  5.7363448692539736  0.3679866949364802 12.2510580688687121   F   F   F
  3.3462011737314841  3.9558569705671482 12.2510580688687121   F   F   F
  3.5055440867663168  1.4719467797459165 12.2510580688687121   F   F   F
 13.3848046949259398 15.8234278822685894 12.2510580688687121   F   F   F
  1.4340862173134934  0.0919966737341203 12.2510580688687121   F   F   F
  9.0825460429854594 15.5474378610662320 12.2510580688687156   F   F   F
 25.6542089986080413 15.3634445135979920 14.2833310164162022   T   T   T
 23.4234082161203894 16.4674045984074269 14.2833310164161986   T   T   T
 23.5827511291552270 13.9834944075861998 14.2833310164161986   T   T   T
 23.7420940421900610 11.4995842167649691 14.2833310164162022   T   T   T
 21.3519503466675573 15.0874544923956329 14.2833310164161986   T   T   T
 21.5112932597023914 12.6035443015743986 14.2833310164161986   T   T   T
 21.6706361727372219 10.1196341107531698 14.2833310164161986   T   T   T
 21.8299790857720524  7.6357239199319347 14.2833310164161986   T   T   T
 19.1211495641799019 16.1914145772050730 14.2833310164162022   T   T   T
 19.2804924772147359 13.7075043863838406 14.2833310164161986   T   T   T
 19.4398353902495629 11.2235941955626064 14.2833310164161986   T   T   T
 19.5991783032843969  8.7396840047413722 14.2833310164161986   T   T   T
 19.7585212163192381  6.2557738139201433 14.2833310164161986   T   T   T
 19.9178641293540721  3.7718636230989104 14.2833310164161986   T   T   T
 17.0496916947270805 14.8114644711932737 14.2833310164161986   T   T   T
 17.2090346077619145 12.3275542803720413 14.2833310164161986   T   T   T
 17.3683775207967450  9.8436440895508071 14.2833310164161951   T   T   T
 17.5277204338315826  7.3597338987295791 14.2833310164161986   T   T   T
 17.6870633468664167  4.8758237079083484 14.2833310164161986   T   T   T
 17.8464062599012472  2.3919135170871133 14.2833310164161951   T   T   T
 14.8188909122394286 15.9154245560027086 14.2833310164161986   T   T   T
 14.9782338252742591 13.4315143651814779 14.2833310164161986   T   T   T
 15.1375767383090931 10.9476041743602437 14.2833310164161986   T   T   T
 15.2969196513439272  8.4636939835390148 14.2833310164161986   T   T   T
 15.4562625643787612  5.9797837927177842 14.2833310164161951   T   T   T
 15.6156054774135935  3.4958736018965491 14.2833310164161986   T   T   T
 15.7749483904484222  1.0119634110753180 14.2833310164161986   T   T   T
 12.7474330427866036 14.5354744499909128 14.2833310164161986   T   T   T
 12.9067759558214341 12.0515642591696803 14.2833310164161986   T   T   T
 13.0661188688562682  9.5676540683484514 14.2833310164161986   T   T   T
 13.2254617818911022  7.0837438775272199 14.2833310164161951   T   T   T
 13.3848046949259345  4.5998336867059866 14.2833310164161986   T   T   T
 13.5441476079607686  2.1159234958847528 14.2833310164161986   T   T   T
 10.5166322602989499 15.6394345348003512 14.2833310164161986   T   T   T
 10.6759751733337787 13.1555243439791170 14.2833310164161986   T   T   T
 10.8353180863686127 10.6716141531578881 14.2833310164161986   T   T   T
 10.9946609994034485  8.1877039623366556 14.2833310164161986   T   T   T
 11.1540039124382808  5.7037937715154214 14.2833310164161951   T   T   T
 11.3133468254731113  3.2198835806941917 14.2833310164161951   T   T   T
 11.4726897385079472  0.7359733898729585 14.2833310164161951   T   T   T
  8.4451743908461232 14.2594844287885536 14.2833310164161986   T   T   T
  8.6045173038809573 11.7755742379673247 14.2833310164161986   T   T   T
  8.7638602169157878  9.2916640471460905 14.2833310164161986   T   T   T
  8.9232031299506236  6.8077538563248599 14.2833310164161951   T   T   T
  9.0825460429854559  4.3238436655036274 14.2833310164161951   T   T   T
  9.2418889560202864  1.8399334746823963 14.2833310164161951   T   T   T
 25.8135519116428789 12.8795343227767614 14.2833310164161986   T   T   T
  6.5330594344281341 10.3956241319555254 14.2833310164161986   T   T   T
  6.6924023474629672  7.9117139411342947 14.2833310164161915   T   T   T
  6.8517452604977995  5.4278037503130614 14.2833310164161951   T   T   T
  7.0110881735326336  2.9438935594918321 14.2833310164161915   T   T   T
  7.1704310865674650  0.4599833686706009 14.2833310164161915   T   T   T
 23.9014369552248880  9.0156740259437296 14.2833310164161986   T   T   T
  4.6209444780101441  6.5317638351224989 14.2833310164161951   T   T   T
  4.7802873910449790  4.0478536443012691 14.2833310164161915   T   T   T
  4.9396303040798104  1.5639434534800358 14.2833310164161951   T   T   T
 21.9893219988068935  5.1518137291107049 14.2833310164161986   T   T   T
  2.7088295215921545  2.6679035382894720 14.2833310164161915   T   T   T
  2.8681724346269877  0.1839933474682406 14.2833310164161915   T   T   T
 20.0772070423889097  1.2879534322776782 14.2833310164161986   T   T   T
 27.7256668680608733 16.7433946196097878 14.2833310164161986   T   T   T
 27.0882952159215407 15.4554411873321129 16.3156039639636852   T   T   T
 24.8574944334338852 16.5594012721415496 16.3156039639636852   T   T   T
 25.0168373464687157 14.0754910813203171 16.3156039639636816   T   T   T
 25.1761802595035462 11.5915808904990847 16.3156039639636852   T   T   T
 22.7860365639810496 15.1794511661297555 16.3156039639636816   T   T   T
 22.9453794770158908 12.6955409753085249 16.3156039639636816   T   T   T
 23.1047223900507177 10.2116307844872871 16.3156039639636781   T   T   T
 23.2640653030855482  7.7277205936660565 16.3156039639636781   T   T   T
 20.5552357814934012 16.2834112509391922 16.3156039639636816   T   T   T
 20.7145786945282282 13.7995010601179580 16.3156039639636816   T   T   T
 20.8739216075630623 11.3155908692967255 16.3156039639636745   T   T   T
 21.0332645205978963  8.8316806784754949 16.3156039639636781   T   T   T
 21.1926074336327304  6.3477704876542633 16.3156039639636745   T   T   T
 21.3519503466675609  3.8638602968330304 16.3156039639636781   T   T   T
 18.4837779120405798 14.9034611449273964 16.3156039639636781   T   T   T
 18.6431208250754139 12.4195509541061639 16.3156039639636745   T   T   T
 18.8024637381102409  9.9356407632849280 16.3156039639636816   T   T   T
 18.9618066511450714  7.4517305724636982 16.3156039639636816   T   T   T
 19.1211495641799019  4.9678203816424658 16.3156039639636781   T   T   T
 19.2804924772147395  2.4839101908212369 16.3156039639636745   T   T   T
 16.2529771295529173 16.0074212297368312 16.3156039639636745   T   T   T
 16.4123200425877513 13.5235110389155953 16.3156039639636781   T   T   T
 16.5716629556225854 11.0396008480943664 16.3156039639636781   T   T   T
 16.7310058686574159  8.5556906572731375 16.3156039639636781   T   T   T
 16.8903487816922500  6.0717804664519042 16.3156039639636781   T   T   T
 17.0496916947270805  3.5878702756306717 16.3156039639636781   T   T   T
 17.2090346077619145  1.1039600848094377 16.3156039639636781   T   T   T
 14.1815192601000977 14.6274711237250354 16.3156039639636781   T   T   T
 14.3408621731349299 12.1435609329037995 16.3156039639636816   T   T   T
 14.5002050861697604  9.6596507420825724 16.3156039639636781   T   T   T
 14.6595479992045945  7.1757405512613399 16.3156039639636781   T   T   T
 14.8188909122394268  4.6918303604401066 16.3156039639636781   T   T   T
 14.9782338252742626  2.2079201696188728 16.3156039639636781   T   T   T
 11.9507184776124422 15.7314312085344703 16.3156039639636781   T   T   T
 12.1100613906472745 13.2475210177132379 16.3156039639636781   T   T   T
 12.2694043036821050 10.7636108268920090 16.3156039639636781   T   T   T
 12.4287472167169426  8.2797006360707748 16.3156039639636781   T   T   T
 12.5880901297517731  5.7957904452495423 16.3156039639636781   T   T   T
 12.7474330427866054  3.3118802544283086 16.3156039639636816   T   T   T
 12.9067759558214430  0.8279700636070793 16.3156039639636781   T   T   T
  9.8792606081596155 14.3514811025226745 16.3156039639636781   T   T   T
 10.0386035211944495 11.8675709117014438 16.3156039639636781   T   T   T
 10.1979464342292836  9.3836607208802114 16.3156039639636781   T   T   T
 10.3572893472641141  6.8997505300589799 16.3156039639636781   T   T   T
 10.5166322602989482  4.4158403392377465 16.3156039639636781   T   T   T
 10.6759751733337822  1.9319301484165161 16.3156039639636781   T   T   T
  7.8078027387067950 12.9715309965108805 16.3156039639636781   T   T   T
  7.9671456517416281 10.4876208056896481 16.3156039639636781   T   T   T
  8.1264885647764622  8.0037106148684156 16.3156039639636781   T   T   T
  8.2858314778112927  5.5198004240471832 16.3156039639636781   T   T   T
  8.4451743908461285  3.0358902332259530 16.3156039639636781   T   T   T
  8.6045173038809590  0.5519800424047208 16.3156039639636781   T   T   T
  5.8956877822888059  9.1076706996778523 16.3156039639636781   T   T   T
  6.0550306953236372  6.6237605088566189 16.3156039639636781   T   T   T
  6.2143736083584713  4.1398503180353901 16.3156039639636781   T   T   T
  6.3737165213933036  1.6559401272141547 16.3156039639636781   T   T   T
  3.9835728258708154  5.2438104028448258 16.3156039639636781   T   T   T
  4.1429157389056481  2.7599002120235934 16.3156039639636781   T   T   T
  4.3022586519404804  0.2759900212023585 16.3156039639636781   T   T   T
  2.0714578694528250  1.3799501060117962 16.3156039639636781   T   T   T
  0.0000000000000021  0.0000000000000009 16.3156039639636781   T   T   T
 17.3382315644605391  3.0334038366537124 20.2414046639636780   T   T   T
 19.9652363469266980  4.8534461386368353 20.2414046639636780   T   T   T
 22.5922411293928604  6.6734884406199591 20.2414046639636780   T   T   T
 11.8215215212816069  2.5783932611579310 20.2414046639636780   T   T   T
 14.4485263037477658  4.3984355631410539 20.2414046639636780   T   T   T
 17.0755310862139211  6.2184778651241794 20.2414046639636780   T   T   T
 19.7025358686800871  8.0385201671073059 20.2414046639636780   T   T   T
 22.3295406511462460  9.8585624690904332 20.2414046639636780   T   T   T
 24.9565454336124048 11.6786047710735588 20.2414046639636815   T   T   T
  6.3048114781026730  2.1233826856621483 20.2414046639636780   T   T   T
  8.9318162605688300  3.9434249876452738 20.2414046639636780   T   T   T
 11.5588210430349925  5.7634672896283980 20.2414046639636780   T   T   T
 14.1858258255011496  7.5835095916115254 20.2414046639636780   T   T   T
 16.8128306079673102  9.4035518935946509 20.2414046639636780   T   T   T
 19.4398353904334691 11.2235941955777747 20.2414046639636780   T   T   T
 22.0668401728996280 13.0436364975608985 20.2414046639636815   T   T   T
 24.6938449553657904 14.8636787995440240 20.2414046639636922   T   T   T
 27.3208497378319493 16.6837211015271407 20.2414046639636922   T   T   T
 20.2279368251733125  1.6683721101663676 20.2414046639636780   T   T   T
  3.4151062173898978  3.4884144121494920 20.2414046639636780   T   T   T
  6.0421109998560585  5.3084567141326167 20.2414046639636780   T   T   T
  8.6691157823222174  7.1284990161157431 20.2414046639636780   T   T   T
 11.2961205647883762  8.9485413180988687 20.2414046639636780   T   T   T
 13.9231253472545369 10.7685836200819924 20.2414046639636780   T   T   T
 16.5501301297206957 12.5886259220651180 20.2414046639636780   T   T   T
 19.1771349121868582 14.4086682240482435 20.2414046639636886   T   T   T
 21.8041396946530099 16.2287105260313673 20.2414046639636922   T   T   T
 14.7112267819943856  1.2133615346705873 20.2414046639636780   T   T   T
  5.7794105216094422  8.4935307426030864 20.2414046639636780   T   T   T
  8.4064153040756029 10.3135730445862137 20.2414046639636780   T   T   T
 11.0334200865417618 12.1336153465693375 20.2414046639636780   T   T   T
 13.6604248690079224 13.9536576485524666 20.2414046639636886   T   T   T
 16.2874296514740813 15.7736999505355904 20.2414046639636886   T   T   T
  9.1945167388154481  0.7583509591748068 20.2414046639636780   T   T   T
  8.1437148258289866 13.4986470730566808 20.2414046639636886   T   T   T
 10.7707196082951455 15.3186893750398063 20.2414046639636886   T   T   T
  3.6778066956365119  0.3033403836790228 20.2414046639636780   T   T   T
 15.4993282163664503  2.8817336447914488 26.9305546639636795   T   T   T
 18.1263329988326092  4.7017759467745739 26.9305546639636795   T   T   T
 20.7533377812987680  6.5218182487576977 26.9305546639636795   T   T   T
  9.9826181731875145  2.4267230692956683 26.9305546639636795   T   T   T
 12.6096229556536770  4.2467653712787916 26.9305546639636795   T   T   T
 15.2366277381198305  6.0668076732619181 26.9305546639636795   T   T   T
 17.8636325205859947  7.8868499752450436 26.9305546639636795   T   T   T
 20.4906373030521536  9.7068922772281692 26.9305546639636795   T   T   T
 23.1176420855183196 11.5269345792112965 26.9305546639636830   T   T   T
  4.4659081300085797  1.9717124937998867 26.9305546639636795   T   T   T
  7.0929129124747394  3.7917547957830116 26.9305546639636795   T   T   T
  9.7199176949409001  5.6117970977661358 26.9305546639636795   T   T   T
 12.3469224774070607  7.4318393997492640 26.9305546639636795   T   T   T
 14.9739272598732214  9.2518817017323887 26.9305546639636795   T   T   T
 17.6009320423393802 11.0719240037155124 26.9305546639636795   T   T   T
 20.2279368248055391 12.8919663056986415 26.9305546639636795   T   T   T
 22.8549416072716944 14.7120086076817636 26.9305546639636830   T   T   T
 25.4819463897378569 16.5320509096648891 26.9305546639636830   T   T   T
 18.3890334770792236  1.5167019183041046 26.9305546639636795   T   T   T
 21.0160382595453825  3.3367442202872311 26.9305546639636795   T   T   T
  4.2032076517619652  5.1567865222703562 26.9305546639636795   T   T   T
  6.8302124342281250  6.9768288242534791 26.9305546639636795   T   T   T
  9.4572172166942856  8.7968711262366064 26.9305546639636795   T   T   T
 12.0842219991604463 10.6169134282197319 26.9305546639636795   T   T   T
 14.7112267816266034 12.4369557302028575 26.9305546639636795   T   T   T
 17.3382315640927622 14.2569980321859848 26.9305546639636795   T   T   T
 19.9652363465589211 16.0770403341691086 26.9305546639636830   T   T   T
 12.8723234339002950  1.0616913428083299 26.9305546639636795   T   T   T
 23.3803425637649305  8.3418605507408223 26.9305546639636795   T   T   T
  6.5675119559815114 10.1619028527239514 26.9305546639636795   T   T   T
  9.1945167384476711 11.9819451547070770 26.9305546639636795   T   T   T
 11.8215215209138300 13.8019874566902025 26.9305546639636795   T   T   T
 14.4485263033799889 15.6220297586733281 26.9305546639636795   T   T   T
  7.3556133907213548  0.6066807673125449 26.9305546639636795   T   T   T
 25.7446468679844713 13.3469768811944185 26.9305546639636830   T   T   T
  8.9318162602010549 15.1670191831775458 26.9305546639636795   T   T   T
  1.8389033475424217  0.1516701918167646 26.9305546639636795   T   T   T
 17.3382315644605427  3.0334038366537119 25.2047539639636788   T   T   T
 19.9652363469266980  4.8534461386368353 25.2047539639636788   T   T   T
 22.5922411293928604  6.6734884406199591 25.2047539639636788   T   T   T
 11.8215215212816087  2.5783932611579305 25.2047539639636788   T   T   T
 14.4485263037477676  4.3984355631410539 25.2047539639636788   T   T   T
 17.0755310862139247  6.2184778651241794 25.2047539639636788   T   T   T
 19.7025358686800871  8.0385201671073059 25.2047539639636859   T   T   T
 22.3295406511462460  9.8585624690904332 25.2047539639636788   T   T   T
 24.9565454336124084 11.6786047710735588 25.2047539639636824   T   T   T
  6.3048114781026730  2.1233826856621478 25.2047539639636788   T   T   T
  8.9318162605688300  3.9434249876452734 25.2047539639636788   T   T   T
 11.5588210430349925  5.7634672896283980 25.2047539639636788   T   T   T
 14.1858258255011531  7.5835095916115254 25.2047539639636859   T   T   T
 16.8128306079673138  9.4035518935946509 25.2047539639636788   T   T   T
 19.4398353904334726 11.2235941955777747 25.2047539639636788   T   T   T
 22.0668401728996315 13.0436364975608985 25.2047539639636824   T   T   T
 24.6938449553657904 14.8636787995440240 25.2047539639636824   T   T   T
 27.3208497378319493 16.6837211015271407 25.2047539639636824   T   T   T
 20.2279368251733125  1.6683721101663669 25.2047539639636788   T   T   T
  3.4151062173898978  3.4884144121494916 25.2047539639636788   T   T   T
  6.0421109998560585  5.3084567141326167 25.2047539639636788   T   T   T
  8.6691157823222174  7.1284990161157431 25.2047539639636859   T   T   T
 11.2961205647883762  8.9485413180988687 25.2047539639636788   T   T   T
 13.9231253472545369 10.7685836200819924 25.2047539639636788   T   T   T
 16.5501301297206957 12.5886259220651180 25.2047539639636788   T   T   T
 19.1771349121868582 14.4086682240482435 25.2047539639636788   T   T   T
 21.8041396946530099 16.2287105260313673 25.2047539639636824   T   T   T
 14.7112267819943874  1.2133615346705866 25.2047539639636788   T   T   T
  5.7794105216094422  8.4935307426030864 25.2047539639636788   T   T   T
  8.4064153040756029 10.3135730445862137 25.2047539639636788   T   T   T
 11.0334200865417618 12.1336153465693375 25.2047539639636788   T   T   T
 13.6604248690079224 13.9536576485524666 25.2047539639636788   T   T   T
 16.2874296514740813 15.7736999505355904 25.2047539639636788   T   T   T
  9.1945167388154481  0.7583509591748062 25.2047539639636788   T   T   T
  8.1437148258289884 13.4986470730566808 25.2047539639636788   T   T   T
 10.7707196082951455 15.3186893750398063 25.2047539639636788   T   T   T
  3.6778066956365119  0.3033403836790222 25.2047539639636788   T   T   T
 15.4993282163664485  2.8817336447914497 18.5156039639636809   T   T   T
 18.1263329988326092  4.7017759467745748 18.5156039639636809   T   T   T
 20.7533377812987645  6.5218182487576986 18.5156039639636809   T   T   T
  9.9826181731875145  2.4267230692956692 18.5156039639636809   T   T   T
 12.6096229556536734  4.2467653712787925 18.5156039639636809   T   T   T
 15.2366277381198287  6.0668076732619189 18.5156039639636809   T   T   T
 17.8636325205859912  7.8868499752450445 18.5156039639636809   T   T   T
 20.4906373030521536  9.7068922772281692 18.5156039639636809   T   T   T
 23.1176420855183160 11.5269345792112965 18.5156039639636845   T   T   T
  4.4659081300085788  1.9717124937998878 18.5156039639636809   T   T   T
  7.0929129124747394  3.7917547957830124 18.5156039639636809   T   T   T
  9.7199176949409001  5.6117970977661367 18.5156039639636809   T   T   T
 12.3469224774070625  7.4318393997492649 18.5156039639636809   T   T   T
 14.9739272598732214  9.2518817017323887 18.5156039639636809   T   T   T
 17.6009320423393802 11.0719240037155124 18.5156039639636809   T   T   T
 20.2279368248055391 12.8919663056986415 18.5156039639636809   T   T   T
 22.8549416072716909 14.7120086076817636 18.5156039639636916   T   T   T
 25.4819463897378569 16.5320509096648891 18.5156039639636916   T   T   T
 18.3890334770792236  1.5167019183041059 18.5156039639636809   T   T   T
 21.0160382595453825  3.3367442202872319 18.5156039639636809   T   T   T
  4.2032076517619661  5.1567865222703571 18.5156039639636809   T   T   T
  6.8302124342281250  6.9768288242534799 18.5156039639636809   T   T   T
  9.4572172166942838  8.7968711262366064 18.5156039639636809   T   T   T
 12.0842219991604463 10.6169134282197319 18.5156039639636809   T   T   T
 14.7112267816266034 12.4369557302028575 18.5156039639636809   T   T   T
 17.3382315640927622 14.2569980321859848 18.5156039639636880   T   T   T
 19.9652363465589175 16.0770403341691086 18.5156039639636916   T   T   T
 12.8723234339002950  1.0616913428083310 18.5156039639636845   T   T   T
 23.3803425637649269  8.3418605507408223 18.5156039639636809   T   T   T
  6.5675119559815105 10.1619028527239514 18.5156039639636809   T   T   T
  9.1945167384476711 11.9819451547070770 18.5156039639636809   T   T   T
 11.8215215209138300 13.8019874566902025 18.5156039639636880   T   T   T
 14.4485263033799889 15.6220297586733281 18.5156039639636880   T   T   T
  7.3556133907213557  0.6066807673125459 18.5156039639636845   T   T   T
 25.7446468679844713 13.3469768811944185 18.5156039639636880   T   T   T
  8.9318162602010549 15.1670191831775458 18.5156039639636880   T   T   T
  1.8389033475424217  0.1516701918167656 18.5156039639636845   T   T   T
 15.4993282163664485  2.8817336447914492 21.9672053639636751   T   T   T
 18.1263329988326092  4.7017759467745748 21.9672053639636751   T   T   T
 20.7533377812987645  6.5218182487576986 21.9672053639636751   T   T   T
  9.9826181731875145  2.4267230692956687 21.9672053639636751   T   T   T
 12.6096229556536734  4.2467653712787925 21.9672053639636751   T   T   T
 15.2366277381198287  6.0668076732619189 21.9672053639636751   T   T   T
 17.8636325205859912  7.8868499752450445 21.9672053639636751   T   T   T
 20.4906373030521536  9.7068922772281692 21.9672053639636751   T   T   T
 23.1176420855183160 11.5269345792112965 21.9672053639636786   T   T   T
  4.4659081300085797  1.9717124937998867 21.9672053639636751   T   T   T
  7.0929129124747412  3.7917547957830129 21.9672053639636751   T   T   T
  9.7199176949409001  5.6117970977661367 21.9672053639636751   T   T   T
 12.3469224774070625  7.4318393997492649 21.9672053639636751   T   T   T
 14.9739272598732214  9.2518817017323887 21.9672053639636751   T   T   T
 17.6009320423393802 11.0719240037155124 21.9672053639636751   T   T   T
 20.2279368248055391 12.8919663056986415 21.9672053639636751   T   T   T
 22.8549416072716909 14.7120086076817636 21.9672053639636857   T   T   T
 25.4819463897378569 16.5320509096648891 21.9672053639636857   T   T   T
 18.3890334770792236  1.5167019183041053 21.9672053639636751   T   T   T
 21.0160382595453790  3.3367442202872315 21.9672053639636751   T   T   T
  4.2032076517619661  5.1567865222703571 21.9672053639636751   T   T   T
  6.8302124342281259  6.9768288242534799 21.9672053639636751   T   T   T
  9.4572172166942856  8.7968711262366046 21.9672053639636751   T   T   T
 12.0842219991604463 10.6169134282197319 21.9672053639636751   T   T   T
 14.7112267816266034 12.4369557302028575 21.9672053639636751   T   T   T
 17.3382315640927622 14.2569980321859848 21.9672053639636822   T   T   T
 19.9652363465589175 16.0770403341691086 21.9672053639636857   T   T   T
 12.8723234339002932  1.0616913428083306 21.9672053639636822   T   T   T
 23.3803425637649269  8.3418605507408223 21.9672053639636751   T   T   T
  6.5675119559815114 10.1619028527239532 21.9672053639636751   T   T   T
  9.1945167384476711 11.9819451547070770 21.9672053639636751   T   T   T
 11.8215215209138300 13.8019874566902025 21.9672053639636822   T   T   T
 14.4485263033799889 15.6220297586733281 21.9672053639636822   T   T   T
  7.3556133907213557  0.6066807673125456 21.9672053639636822   T   T   T
 25.7446468679844713 13.3469768811944185 21.9672053639636857   T   T   T
  8.9318162602010549 15.1670191831775458 21.9672053639636822   T   T   T
  1.8389033475424224  0.1516701918167651 21.9672053639636822   T   T   T
 17.3382315644605391  3.0334038366537115 28.6563553639636730   T   T   T
 19.9652363469266980  4.8534461386368344 28.6563553639636730   T   T   T
 22.5922411293928604  6.6734884406199582 28.6563553639636730   T   T   T
 11.8215215212816087  2.5783932611579301 28.6563553639636730   T   T   T
 14.4485263037477676  4.3984355631410530 28.6563553639636730   T   T   T
 17.0755310862139247  6.2184778651241785 28.6563553639636730   T   T   T
 19.7025358686800871  8.0385201671073059 28.6563553639636730   T   T   T
 22.3295406511462460  9.8585624690904332 28.6563553639636730   T   T   T
 24.9565454336124084 11.6786047710735588 28.6563553639636766   T   T   T
  6.3048114781026730  2.1233826856621478 28.6563553639636730   T   T   T
  8.9318162605688300  3.9434249876452734 28.6563553639636730   T   T   T
 11.5588210430349925  5.7634672896283972 28.6563553639636730   T   T   T
 14.1858258255011513  7.5835095916115245 28.6563553639636730   T   T   T
 16.8128306079673138  9.4035518935946509 28.6563553639636730   T   T   T
 19.4398353904334726 11.2235941955777747 28.6563553639636730   T   T   T
 22.0668401728996315 13.0436364975608985 28.6563553639636766   T   T   T
 24.6938449553657904 14.8636787995440240 28.6563553639636766   T   T   T
 27.3208497378319493 16.6837211015271407 28.6563553639636766   T   T   T
 20.2279368251733125  1.6683721101663664 28.6563553639636730   T   T   T
  3.4151062173898978  3.4884144121494911 28.6563553639636730   T   T   T
  6.0421109998560585  5.3084567141326175 28.6563553639636730   T   T   T
  8.6691157823222174  7.1284990161157422 28.6563553639636730   T   T   T
 11.2961205647883762  8.9485413180988687 28.6563553639636730   T   T   T
 13.9231253472545369 10.7685836200819924 28.6563553639636730   T   T   T
 16.5501301297206957 12.5886259220651180 28.6563553639636730   T   T   T
 19.1771349121868582 14.4086682240482435 28.6563553639636730   T   T   T
 21.8041396946530099 16.2287105260313673 28.6563553639636766   T   T   T
 14.7112267819943856  1.2133615346705862 28.6563553639636730   T   T   T
  5.7794105216094431  8.4935307426030864 28.6563553639636730   T   T   T
  8.4064153040756029 10.3135730445862137 28.6563553639636730   T   T   T
 11.0334200865417635 12.1336153465693375 28.6563553639636730   T   T   T
 13.6604248690079224 13.9536576485524666 28.6563553639636730   T   T   T
 16.2874296514740813 15.7736999505355904 28.6563553639636730   T   T   T
  9.1945167388154481  0.7583509591748059 28.6563553639636730   T   T   T
  8.1437148258289884 13.4986470730566808 28.6563553639636730   T   T   T
 10.7707196082951473 15.3186893750398063 28.6563553639636730   T   T   T
  3.6778066956365119  0.3033403836790217 28.6563553639636730   T   T   T
