Ni B  Mo Au Mo
 1.0000000000000000
     4.3111019472983934    0.0000000000000000    0.0000000000000003
     2.1555509736491998   51.0248253304212795   -0.0000000000000082
     0.0000000000000000    0.0000000000000000   27.5449619132702352
 Ni  B   Mo  Au  Mo 
 164  48   4   1  43
Selective dynamics
Cartesian
  5.0296189385147958 48.5358094606446215  8.0139842679712441   F   F   F
  2.8740679648656018 49.7803173955329612  8.0139842679712476   F   F   F
  5.0296189385148065 46.0467935908679920  8.0139842679712530   F   F   F
  2.8740679648656076 47.2913015257563032  8.0139842679712494   F   F   F
  5.0296189385147958 43.5577777210913268  8.0139842679712441   F   F   F
  2.8740679648656098 44.8022856559796665  8.0139842679712565   F   F   F
  5.0296189385147958 41.0687618513146830  8.0139842679712441   F   F   F
  2.8740679648656013 42.3132697862030014  8.0139842679712441   F   F   F
  5.0296189385147949 38.5797459815380392  8.0139842679712423   F   F   F
  2.8740679648655991 39.8242539164263576  8.0139842679712476   F   F   F
  5.0296189385147985 36.0907301117613883  8.0139842679712494   F   F   F
  2.8740679648656000 37.3352380466497138  8.0139842679712476   F   F   F
  5.0296189385147976 33.6017142419847445  8.0139842679712459   F   F   F
  2.8740679648656071 34.8462221768730700  8.0139842679712512   F   F   F
  5.0296189385147958 31.1126983722080972  8.0139842679712476   F   F   F
  2.8740679648655991 32.3572063070964191  8.0139842679712459   F   F   F
  5.0296189385147940 28.6236825024314392  8.0139842679712512   F   F   F
  2.8740679648655965 29.8681904373197646  8.0139842679712494   F   F   F
  5.0296189385147976 26.1346666326548025  8.0139842679712530   F   F   F
  2.8740679648656013 27.3791745675431279  8.0139842679712530   F   F   F
  5.0296189385147976 23.6456507628781516  8.0139842679712494   F   F   F
  2.8740679648656009 24.8901586977664770  8.0139842679712476   F   F   F
  5.0296189385147949 21.1566348931015007  8.0139842679712476   F   F   F
  2.8740679648655982 22.4011428279898261  8.0139842679712494   F   F   F
  5.0296189385147940 18.6676190233248569  8.0139842679712476   F   F   F
  2.8740679648655991 19.9121269582131823  8.0139842679712494   F   F   F
  5.0296189385147940 16.1786031535482095  8.0139842679712476   F   F   F
  2.8740679648655996 17.4231110884365314  8.0139842679712512   F   F   F
  5.0296189385147931 13.6895872837715640  8.0139842679712494   F   F   F
  2.8740679648655978 14.9340952186598823  8.0139842679712512   F   F   F
  5.0296189385147931 11.2005714139949131  8.0139842679712494   F   F   F
  2.8740679648655973 12.4450793488832367  8.0139842679712512   F   F   F
  5.0296189385147931  8.7115555442182639  8.0139842679712494   F   F   F
  2.8740679648655965  9.9560634791065912  8.0139842679712530   F   F   F
  0.7185169912163999  6.2225396744416210  8.0139842679712512   F   F   F
  2.8740679648655969  7.4670476093299447  8.0139842679712512   F   F   F
  0.7185169912163987  3.7335238046649728  8.0139842679712530   F   F   F
  2.8740679648655960  4.9780317395532947  8.0139842679712530   F   F   F
  2.8740679648655942 -0.0000000000000004  8.0139842679712512   F   F   F
  0.7185169912163979  1.2445079348883239  8.0139842679712530   F   F   F
  2.8740679648655960  2.4890158697766478  8.0139842679712530   F   F   F
  6.4666529209476007 48.5358094606446286 10.0462572155187360   F   F   F
  4.3111019472983942 49.7803173955329541 10.0462572155187271   F   F   F
  6.4666529209475980 46.0467935908679706 10.0462572155187306   F   F   F
  4.3111019472984022 47.2913015257563032 10.0462572155187271   F   F   F
  6.4666529209475945 43.5577777210913410 10.0462572155187271   F   F   F
  4.3111019472984005 44.8022856559796594 10.0462572155187306   F   F   F
  6.4666529209475918 41.0687618513146830 10.0462572155187253   F   F   F
  4.3111019472983987 42.3132697862030156 10.0462572155187253   F   F   F
  6.4666529209475909 38.5797459815380392 10.0462572155187253   F   F   F
  4.3111019472983960 39.8242539164263576 10.0462572155187289   F   F   F
  2.1555509736491993 36.0907301117613883 10.0462572155187271   F   F   F
  4.3111019472983978 37.3352380466497138 10.0462572155187289   F   F   F
  2.1555509736492029 33.6017142419847374 10.0462572155187360   F   F   F
  4.3111019472984005 34.8462221768730700 10.0462572155187360   F   F   F
  2.1555509736491993 31.1126983722080972 10.0462572155187324   F   F   F
  4.3111019472983942 32.3572063070964191 10.0462572155187306   F   F   F
  2.1555509736491971 28.6236825024314463 10.0462572155187342   F   F   F
  4.3111019472983925 29.8681904373197646 10.0462572155187306   F   F   F
  2.1555509736491976 26.1346666326548025 10.0462572155187324   F   F   F
  4.3111019472983951 27.3791745675431208 10.0462572155187360   F   F   F
  2.1555509736492029 23.6456507628781516 10.0462572155187360   F   F   F
  4.3111019472983934 24.8901586977664770 10.0462572155187289   F   F   F
  2.1555509736491980 21.1566348931015007 10.0462572155187324   F   F   F
  4.3111019472983960 22.4011428279898333 10.0462572155187342   F   F   F
  2.1555509736491971 18.6676190233248569 10.0462572155187324   F   F   F
  4.3111019472983960 19.9121269582131823 10.0462572155187342   F   F   F
  2.1555509736492002 16.1786031535482095 10.0462572155187377   F   F   F
  4.3111019472983969 17.4231110884365314 10.0462572155187342   F   F   F
  2.1555509736491971 13.6895872837715640 10.0462572155187324   F   F   F
  4.3111019472983951 14.9340952186598859 10.0462572155187342   F   F   F
  2.1555509736491967 11.2005714139949131 10.0462572155187360   F   F   F
  4.3111019472983942 12.4450793488832367 10.0462572155187342   F   F   F
  2.1555509736491980  8.7115555442182657 10.0462572155187360   F   F   F
  4.3111019472983934  9.9560634791065894 10.0462572155187342   F   F   F
  2.1555509736491962  6.2225396744416175 10.0462572155187360   F   F   F
  4.3111019472983942  7.4670476093299447 10.0462572155187342   F   F   F
  2.1555509736491967  3.7335238046649724 10.0462572155187360   F   F   F
  4.3111019472983942  4.9780317395532938 10.0462572155187360   F   F   F
  4.3111019472983925 -0.0000000000000007 10.0462572155187360   F   F   F
  2.1555509736491953  1.2445079348883232 10.0462572155187360   F   F   F
  4.3111019472983942  2.4890158697766482 10.0462572155187377   F   F   F
  3.5925849560819998 48.5358094606446286 12.0785301630662172   T   T   T
  5.7481359297311947 49.7803173955329541 12.0785301630662172   T   T   T
  3.5925849560820078 46.0467935908679920 12.0785301630662207   T   T   T
  5.7481359297312009 47.2913015257563103 12.0785301630662136   T   T   T
  3.5925849560819998 43.5577777210913410 12.0785301630662101   T   T   T
  5.7481359297312000 44.8022856559796665 12.0785301630662172   T   T   T
  3.5925849560819976 41.0687618513146830 12.0785301630662101   T   T   T
  5.7481359297311974 42.3132697862030227 12.0785301630662136   T   T   T
  3.5925849560819945 38.5797459815380392 12.0785301630662101   T   T   T
  5.7481359297311903 39.8242539164263576 12.0785301630662065   T   T   T
  3.5925849560819962 36.0907301117613883 12.0785301630662119   T   T   T
  5.7481359297311911 37.3352380466497138 12.0785301630662065   T   T   T
  3.5925849560819962 33.6017142419847445 12.0785301630662119   T   T   T
  5.7481359297311991 34.8462221768730771 12.0785301630662190   T   T   T
  3.5925849560819998 31.1126983722081007 12.0785301630662190   T   T   T
  5.7481359297311911 32.3572063070964191 12.0785301630662119   T   T   T
  3.5925849560819900 28.6236825024314463 12.0785301630662119   T   T   T
  5.7481359297311894 29.8681904373197646 12.0785301630662101   T   T   T
  3.5925849560819940 26.1346666326548025 12.0785301630662136   T   T   T
  5.7481359297311911 27.3791745675431279 12.0785301630662136   T   T   T
  3.5925849560819985 23.6456507628781516 12.0785301630662172   T   T   T
  5.7481359297311911 24.8901586977664699 12.0785301630662136   T   T   T
  3.5925849560819954 21.1566348931015007 12.0785301630662136   T   T   T
  5.7481359297311920 22.4011428279898297 12.0785301630662136   T   T   T
  3.5925849560819945 18.6676190233248569 12.0785301630662136   T   T   T
  5.7481359297311938 19.9121269582131823 12.0785301630662172   T   T   T
  3.5925849560819954 16.1786031535482095 12.0785301630662154   T   T   T
  5.7481359297311920 17.4231110884365314 12.0785301630662154   T   T   T
  3.5925849560819945 13.6895872837715640 12.0785301630662154   T   T   T
  5.7481359297311920 14.9340952186598859 12.0785301630662190   T   T   T
  3.5925849560819936 11.2005714139949166 12.0785301630662154   T   T   T
  1.4370339824327978 12.4450793488832385 12.0785301630662136   T   T   T
  3.5925849560819931  8.7115555442182657 12.0785301630662154   T   T   T
  1.4370339824327969  9.9560634791065912 12.0785301630662154   T   T   T
  3.5925849560819931  6.2225396744416175 12.0785301630662172   T   T   T
  1.4370339824327973  7.4670476093299456 12.0785301630662190   T   T   T
  3.5925849560819927  3.7335238046649728 12.0785301630662172   T   T   T
  1.4370339824327962  4.9780317395532938 12.0785301630662172   T   T   T
  1.4370339824327956  0.0000000000000000 12.0785301630662172   T   T   T
  3.5925849560819922  1.2445079348883237 12.0785301630662172   T   T   T
  1.4370339824327962  2.4890158697766491 12.0785301630662172   T   T   T
  5.0296189385147985 48.5358094606446286 14.1108031106137037   T   T   T
  7.1851699121639871 49.7803173955329541 14.1108031106136913   T   T   T
  5.0296189385148002 46.0467935908679848 14.1108031106136966   T   T   T
  7.1851699121639969 47.2913015257563032 14.1108031106136949   T   T   T
  5.0296189385147985 43.5577777210913410 14.1108031106137002   T   T   T
  7.1851699121639996 44.8022856559796736 14.1108031106137037   T   T   T
  5.0296189385147949 41.0687618513146901 14.1108031106136949   T   T   T
  2.8740679648655973 42.3132697862030014 14.1108031106136913   T   T   T
  5.0296189385147967 38.5797459815380392 14.1108031106136984   T   T   T
  2.8740679648655978 39.8242539164263647 14.1108031106136966   T   T   T
  5.0296189385147922 36.0907301117613883 14.1108031106136966   T   T   T
  2.8740679648655956 37.3352380466497138 14.1108031106136931   T   T   T
  5.0296189385147958 33.6017142419847445 14.1108031106136966   T   T   T
  2.8740679648655996 34.8462221768730700 14.1108031106136966   T   T   T
  5.0296189385147922 31.1126983722080972 14.1108031106136984   T   T   T
  2.8740679648655956 32.3572063070964191 14.1108031106136931   T   T   T
  5.0296189385147887 28.6236825024314392 14.1108031106136949   T   T   T
  2.8740679648655956 29.8681904373197646 14.1108031106136984   T   T   T
  5.0296189385147958 26.1346666326548025 14.1108031106137037   T   T   T
  2.8740679648655996 27.3791745675431279 14.1108031106137002   T   T   T
  5.0296189385147940 23.6456507628781516 14.1108031106137002   T   T   T
  2.8740679648655973 24.8901586977664770 14.1108031106137002   T   T   T
  5.0296189385147922 21.1566348931015078 14.1108031106137002   T   T   T
  2.8740679648655965 22.4011428279898261 14.1108031106137037   T   T   T
  5.0296189385147922 18.6676190233248569 14.1108031106136984   T   T   T
  2.8740679648655965 19.9121269582131823 14.1108031106137002   T   T   T
  5.0296189385147914 16.1786031535482095 14.1108031106136966   T   T   T
  2.8740679648655960 17.4231110884365314 14.1108031106137002   T   T   T
  5.0296189385147922 13.6895872837715640 14.1108031106137002   T   T   T
  2.8740679648655973 14.9340952186598859 14.1108031106137020   T   T   T
  5.0296189385147896 11.2005714139949131 14.1108031106136966   T   T   T
  2.8740679648655956 12.4450793488832421 14.1108031106137020   T   T   T
  5.0296189385147914  8.7115555442182657 14.1108031106137020   T   T   T
  2.8740679648655938  9.9560634791065912 14.1108031106137020   T   T   T
  5.0296189385147887  6.2225396744416193 14.1108031106137020   T   T   T
  2.8740679648655951  7.4670476093299456 14.1108031106137020   T   T   T
  5.0296189385147905  3.7335238046649737 14.1108031106137037   T   T   T
  2.8740679648655942  4.9780317395532965 14.1108031106137037   T   T   T
  2.8740679648655916  0.0000000000000007 14.1108031106137037   T   T   T
  5.0296189385147896  1.2445079348883243 14.1108031106137020   T   T   T
  2.8740679648655938  2.4890158697766478 14.1108031106137020   T   T   T
 -4.0143706712867555  6.1363655718929602 19.0325759646807136   T   T   T
 -1.8588196976375566 23.1446406820333870 19.0325759646807100   T   T   T
  0.2967312760116407 40.1529157921738147 19.0325759646807029   T   T   T
 -2.9365951844621581  1.8142932021007023 18.4882213938673132   T   T   T
 -0.7810442108129599 18.8225683122411240 18.4882213938673097   T   T   T
 -2.9365951844621563 35.8308434223815553 18.4882213938673061   T   T   T
 -2.9365951844621572  5.5068727623161182 20.2214463473371779   T   T   T
 -0.7810442108129589 22.5151478724565450 20.2214463473371744   T   T   T
  1.3745067628362397 39.5234229825969692 20.2214463473371708   T   T   T
 -4.0143706712867564  1.1848003925238633 19.6770917765237776   T   T   T
 -1.8588196976375577 18.1930755026642856 19.6770917765237741   T   T   T
  0.2967312760116394 35.2013506128047098 19.6770917765237705   T   T   T
  0.2967312760116387 14.7805103114774692 20.1212851063075071   T   T   T
 -1.8588196976375577 31.7887854216178880 20.1212851063075107   T   T   T
  0.2967312760116416 48.7970605317583264 20.1212851063075036   T   T   T
 -1.8588196976375588  9.5489307630797757 18.5883826348969770   T   T   T
 -4.0143706712867555 26.5572058732201981 18.5883826348969734   T   T   T
 -1.8588196976375566 43.5654809833606222 18.5883826348969698   T   T   T
 -0.7810442108129595 13.8710031328720298 19.1327372057103773   T   T   T
 -2.9365951844621545 30.8792782430124610 19.1327372057103773   T   T   T
 -0.7810442108129574 47.8875533531528816 19.1327372057103702   T   T   T
 -2.9365951844621581 10.4584379416852151 19.5769305354941068   T   T   T
 -0.7810442108129596 27.4667130518256393 19.5769305354941068   T   T   T
  1.3745067628362388 44.4749881619660670 19.5769305354941032   T   T   T
 -6.1699216449359540  5.8563512028643618 16.8551576814271122   T   T   T
 -4.0143706712867564 22.8646263130047842 16.8551576814271087   T   T   T
 -1.8588196976375575 39.8729014231452155 16.8551576814271051   T   T   T
 -5.0921461581113565  1.5342788330721013 16.3108031106137119   T   T   T
 -2.9365951844621585 18.5425539432125319 16.3108031106137084   T   T   T
 -5.0921461581113565 35.5508290533529490 16.3108031106137013   T   T   T
 -5.0921461581113521  5.2268583932875172 18.0440280640835802   T   T   T
 -2.9365951844621536 22.2351335034279458 18.0440280640835766   T   T   T
 -0.7810442108129563 39.2434086135683700 18.0440280640835731   T   T   T
 -6.1699216449359513  0.9047860234952622 17.4996734932701798   T   T   T
 -4.0143706712867537 17.9130611336356864 17.4996734932701763   T   T   T
 -1.8588196976375568 34.9213362437761106 17.4996734932701727   T   T   T
 -1.8588196976375575 14.5004959424488664 17.9438668230539093   T   T   T
 -4.0143706712867537 31.5087710525892817 17.9438668230539058   T   T   T
 -1.8588196976375548 48.5170461627297200 17.9438668230539058   T   T   T
 -4.0143706712867546  9.2689163940511730 16.4109643516433792   T   T   T
 -6.1699216449359522 26.2771915041915989 16.4109643516433756   T   T   T
 -4.0143706712867528 43.2854666143320159 16.4109643516433721   T   T   T
 -2.9365951844621563 13.5909887638434288 16.9553189224567760   T   T   T
 -5.0921461581113521 30.5992638739838512 16.9553189224567760   T   T   T
 -2.9365951844621545 47.6075389841242824 16.9553189224567724   T   T   T
 -5.0921461581113530 10.1784235726566141 17.3995122522405090   T   T   T
 -2.9365951844621558 27.1866986827970365 17.3995122522405090   T   T   T
 -0.7810442108129565 44.1949737929374677 17.3995122522405055   T   T   T
 -4.0143706712867564  8.7292459867652958 18.6950761307763997   T   T   T
 -1.8588196976375579 25.7375210969057200 18.6950761307763962   T   T   T
  0.2967312760116392 42.7457962070461406 18.6950761307763926   T   T   T
 -0.7810442108129612  4.6871879860016374 20.3281398432166043   T   T   T
  1.3745067628362380 21.6954630961420598 20.3281398432166007   T   T   T
 -0.7810442108129585 38.7037382062824946 20.3281398432165936   T   T   T
 -2.9365951844621576  2.9139923474437879 20.5589461812414847   T   T   T
 -0.7810442108129599 19.9222674575842085 20.5589461812414811   T   T   T
  1.3745067628362391 36.9305425677246433 20.5589461812414775   T   T   T
 -1.8588196976375579 15.6001950877919562 20.0145916104280808   T   T   T
  0.2967312760116403 32.6084701979323768 20.0145916104280808   T   T   T
  2.4522822496608390 49.6167453080728009 20.0145916104280772   T   T   T
 -1.8588196976375586  0.3651156162093799 19.7837852724032039   T   T   T
  0.2967312760116393 17.3733907263498040 19.7837852724032004   T   T   T
 -1.8588196976375577 34.3816658364902352 19.7837852724031933   T   T   T
 -1.8588196976375593  6.9560503482074392 18.9258824688012837   T   T   T
  0.2967312760116386 23.9643254583478615 18.9258824688012801   T   T   T
 -1.8588196976375573 40.9726005684882892 18.9258824688012766   T   T   T
 -0.7810442108129600 11.2781227179996932 19.4702370396146804   T   T   T
 -2.9365951844621545 28.2863978281401174 19.4702370396146840   T   T   T
 -0.7810442108129572 45.2946729382805486 19.4702370396146769   T   T   T
 -2.9365951844621572 13.0513183565575552 19.2394307015898001   T   T   T
 -0.7810442108129603 30.0595934666979794 19.2394307015897965   T   T   T
  1.3745067628362384 47.0678685768384071 19.2394307015897930   T   T   T
 -6.1699216449359522  8.4492316177366931 16.5176578475228020   T   T   T
 -4.0143706712867537 25.4575067278771208 16.5176578475227984   T   T   T
 -1.8588196976375562 42.4657818380175414 16.5176578475227949   T   T   T
 -2.9365951844621598  4.4071736169730356 18.1507215599629994   T   T   T
 -0.7810442108129607 21.4154487271134641 18.1507215599629959   T   T   T
 -2.9365951844621563 38.4237238372538954 18.1507215599629923   T   T   T
 -5.0921461581113556  2.6339779784151856 18.3815278979878833   T   T   T
 -2.9365951844621563 19.6422530885556057 18.3815278979878798   T   T   T
 -0.7810442108129574 36.6505281986960441 18.3815278979878762   T   T   T
 -4.0143706712867546 15.3201807187633534 17.8371733271744830   T   T   T
 -1.8588196976375566 32.3284558289037776 17.8371733271744795   T   T   T
  0.2967312760116418 49.3367309390441946 17.8371733271744795   T   T   T
 -4.0143706712867564  0.0851012471807782 17.6063669891496026   T   T   T
 -1.8588196976375577 17.0933763573212012 17.6063669891495991   T   T   T
 -4.0143706712867537 34.1016514674616289 17.6063669891495955   T   T   T
 -4.0143706712867582  6.6760359791788391 16.7484641855476823   T   T   T
 -1.8588196976375593 23.6843110893192588 16.7484641855476823   T   T   T
 -4.0143706712867555 40.6925861994596900 16.7484641855476752   T   T   T
 -2.9365951844621589 10.9981083489710922 17.2928187563610791   T   T   T
 -5.0921461581113538 28.0063834591115075 17.2928187563610827   T   T   T
 -2.9365951844621545 45.0146585692519494 17.2928187563610791   T   T   T
 -5.0921461581113521 12.7713039875289542 17.0620124183362023   T   T   T
 -2.9365951844621554 29.7795790976693731 17.0620124183361987   T   T   T
 -0.7810442108129565 46.7878542078098079 17.0620124183361952   T   T   T
