P  Mo P  Mo P  Mo P  Mo P  Mo P  Mo P  Mo P  Mo P  Mo P  Mo P  Mo P  Mo P  Mo P  Mo P  Mo P  Mo P 
 1.0000000000000000
    35.7018752806270214    0.0000000000000000    0.0000000000000022
    -3.2299999999999982    5.5945241084474748    0.0000000000000004
     0.0000000000000000    0.0000000000000000   20.8150000000000013
 P   Mo  P   Mo  P   Mo  P   Mo  P   Mo  P   Mo  P   Mo  P   Mo  P   Mo  P   Mo  P   Mo  P   Mo  P   Mo  P   Mo  P   Mo  P   Mo  P  
   5   1   1   1   1   1   1   1   1   1   1   1   1   1   1   1   1   1   1   1   1   1   1   1   1   1   1   1   1   1   1   1   4
Selective dynamics
Cartesian
  9.2376043070340099  0.0000000000000000  8.0000000000000000   F   F   F
  9.2376043070340099  0.0000000000000000 11.2100000000000009   T   T   T
  7.6226043070340106  2.7972620542237374  8.0000000000000000   F   F   F
  7.6226043070340106  2.7972620542237374 11.2100000000000009   T   T   T
 12.4676043070340103  0.0000000000000000  8.0000000000000000   F   F   F
 12.4676043068725093  1.8648413695757335  9.6050000000000004   F   F   F
 12.4676043070340103  0.0000000000000000 11.2100000000000009   T   T   T
 12.4676043068725093  1.8648413695757335 12.8150000000000013   T   T   T
 10.8526043070340101  2.7972620542237374  8.0000000000000018   F   F   F
 10.8526043068725109  4.6621034237994712  9.6050000000000004   F   F   F
 10.8526043070340101  2.7972620542237374 11.2100000000000009   T   T   T
 10.8526043068725109  4.6621034237994712 12.8150000000000013   T   T   T
 15.6976043070340090  0.0000000000000000  8.0000000000000018   F   F   F
 15.6976043068725097  1.8648413695757335  9.6050000000000004   F   F   F
 15.6976043070340090  0.0000000000000000 11.2100000000000009   T   T   T
 15.6976043068725097  1.8648413695757335 12.8150000000000013   T   T   T
 14.0826043070340106  2.7972620542237374  8.0000000000000018   F   F   F
 14.0826043068725113  4.6621034237994712  9.6050000000000022   F   F   F
 14.0826043070340106  2.7972620542237374 11.2100000000000009   T   T   T
 14.0826043068725113  4.6621034237994712 12.8150000000000013   T   T   T
 18.9276043070340094  0.0000000000000000  8.0000000000000018   F   F   F
 18.9276043068725102  1.8648413695757335  9.6050000000000022   F   F   F
 18.9276043070340094  0.0000000000000000 11.2100000000000009   T   T   T
 18.9276043068725102  1.8648413695757335 12.8150000000000013   T   T   T
 17.3126043070340110  2.7972620542237374  8.0000000000000018   F   F   F
 17.3126043068725117  4.6621034237994712  9.6050000000000022   F   F   F
 17.3126043070340110  2.7972620542237374 11.2100000000000009   T   T   T
 17.3126043068725117  4.6621034237994712 12.8150000000000013   T   T   T
 22.1576043070340098  0.0000000000000000  8.0000000000000018   F   F   F
 22.1576043068725106  1.8648413695757335  9.6050000000000022   F   F   F
 22.1576043070340098  0.0000000000000000 11.2100000000000009   T   T   T
 22.1576043068725106  1.8648413695757335 12.8150000000000013   T   T   T
 20.5426043070340114  2.7972620542237374  8.0000000000000018   F   F   F
 20.5426043068725122  4.6621034237994712  9.6050000000000022   F   F   F
 20.5426043070340114  2.7972620542237374 11.2100000000000009   T   T   T
 20.5426043068725122  4.6621034237994712 12.8150000000000013   T   T   T
 25.3876043070340103  0.0000000000000000  8.0000000000000018   F   F   F
 25.3876043070340103  0.0000000000000000 11.2100000000000009   T   T   T
 23.7726043070340083  2.7972620542237374  8.0000000000000018   F   F   F
 23.7726043070340083  2.7972620542237374 11.2100000000000009   T   T   T
