Mo B  Mo B  Mo B  Mo B  Mo B  Mo B  Mo B  Mo B  Mo B  Mo B  Mo B  Mo B  Mo B  Mo B  Mo B  Mo B  Mo B  Mo B  Mo B  Mo B  Mo B  Mo B  Mo B  Mo B  Mo B  Mo B  Mo B  Mo B  Mo B  Mo B  Mo B  Mo B  Mo B  Mo B  Mo B  Mo B  Mo B  Mo B  Mo B  Mo B  Mo B  Mo B  Mo B  Mo B  Mo B  Mo B  Mo B  Mo B  Mo B  Mo B  Mo B  Mo B  Mo B  Mo B  Mo B  Mo B  Mo B  Mo B  Mo B  Mo B  Mo B  Mo B  Mo B  Mo B 
 1.0000000000000000
    17.5645324446738407    0.0000000000000000    0.0000000000000000
    -8.7822662223369186   68.4457639302827801    0.0000000000000000
     0.0000000000000000    0.0000000000000000   28.4788667949895213
 Mo  B   Mo  B   Mo  B   Mo  B   Mo  B   Mo  B   Mo  B   Mo  B   Mo  B   Mo  B   Mo  B   Mo  B   Mo  B   Mo  B   Mo  B   Mo  B   Mo  B   Mo  B   Mo  B   Mo  B   Mo  B   Mo  B   Mo  B   Mo  B   Mo  B   Mo  B   Mo  B   Mo  B   Mo  B   Mo  B   Mo  B   Mo  B   Mo  B   Mo  B   Mo  B   Mo  B   Mo  B   Mo  B   Mo  B   Mo  B   Mo  B   Mo  B   Mo  B   Mo  B   Mo  B   Mo  B   Mo  B   Mo  B   Mo  B   Mo  B   Mo  B   Mo  B   Mo  B   Mo  B   Mo  B   Mo  B   Mo  B   Mo  B   Mo  B   Mo  B   Mo  B   Mo  B   Mo  B   Mo  B  
   8   8   8   8   8   8   8   8   8   8   8   8   8   8   8   8   8   8   8   8   8   8   8   8   8   8   8   8   8   8   8   8   8   8   8   8   8   8   8   8   8   8   8   8   8   8   8   8   8   8   8   8   8   8   8   8   8   8   8   8   8   8   8   8   8   8   8   8   8   8   8   8   8   8   8   8   8   8   8   8   8   8   8   8   8   8   8   8   8   8   8   8   8   8   8   8   8   8   8   8   8   8   8   8   8   8   8   8   8   8   8   8   8   8   8   8   8   8   8   8   8   8   8   8   8   8   8   8
Selective dynamics
Cartesian
  1.0977832777921155  7.6637448993088144 10.0000000000000000   F   F   F
  0.0000000000000008 12.0120333529690075 10.5443545708134003   F   F   F
  2.1955665555842314 13.7959845369220719 10.3135482327885164   F   F   F
  1.0977832777921150  1.0328320080115707 10.8579028036019203   F   F   F
  1.0977832777921159 16.3603218066292015 11.0887091416268007   F   F   F
  1.0977832777921153  9.7294089153319554 11.9466119452287174   F   F   F
  0.0000000000000002  5.3811204616717641 11.4022573744153171   F   F   F
  2.1955665555842305  3.5971692777186983 11.6330637124402010   F   F   F
 -1.0977832777921133 10.5540655947064863 11.8399184493492911   F   F   F
  0.0000000000000012 14.6206412162965993 10.2068547369090901   F   F   F
  2.1955665555842310 11.1873766735944766 10.6510480666928267   F   F   F
 -1.0977832777921139 15.5356651272546653 11.1954026375062270   F   F   F
  3.2933498333763458  1.8574886873860998 10.7512093077224939   F   F   F
  3.2933498333763453  6.8390882199342817 10.1066934958794263   F   F   F
  0.0000000000000008  2.7725125983441679 11.7397572083196273   F   F   F
  2.1955665555842301  6.2057771410462950 11.2955638785358907   F   F   F
  3.2933498333763458  7.9454577313788928 12.1774182832536013   F   F   F
  2.1955665555842314 12.2937461850390868 12.7217728540670016   F   F   F
  0.0000000000000005 14.0776973689921512 12.4909665160421177   F   F   F
  3.2933498333763453  1.3145448400816491 13.0353210868555180   F   F   F
 -1.0977832777921128 16.6420346386992790 13.2661274248804020   F   F   F
 -1.0977832777921150 10.0111217474020346 14.1240302284823187   F   F   F
  2.1955665555842301  5.6628332937418424 13.5796756576689184   F   F   F
  0.0000000000000004  3.8788821097887776 13.8104819956938023   F   F   F
  1.0977832777921157 10.8357784267765656 14.0173367326028924   F   F   F
  2.1955665555842314 14.9023540483666785 12.3842730201626914   F   F   F
  0.0000000000000016 11.4690895056645576 12.8284663499464280   F   F   F
  1.0977832777921155 15.8173779593247428 13.3728209207598283   F   F   F
  1.0977832777921155  2.1392015194561784 12.9286275909760917   F   F   F
  1.0977832777921155  7.1208010520043610 12.2841117791330277   F   F   F
  2.1955665555842305  3.0542254304142467 13.9171754915732251   F   F   F
  0.0000000000000008  6.4874899731163733 13.4729821617894920   F   F   F
  1.0977832777921157  8.2271705634489720 14.3548365665072026   T   T   T
 -0.0000000000000003 12.5754590171091643 14.8991911373205994   T   T   T
  2.1955665555842296 14.3594102010622287 14.6683847992957190   T   T   T
  1.0977832777921155  1.5962576721517279 15.2127393701091194   T   T   T
  1.0977832777921175 16.9237474707693565 15.4435457081340033   T   T   T
  1.0977832777921157 10.2928345794721139 16.3014485117359200   T   T   T
  0.0000000000000011  5.9445461258119208 15.7570939409225197   T   T   T
  2.1955665555842305  4.1605949418588555 15.9879002789474001   T   T   T
 -1.0977832777921126 11.1174912588466448 16.1947550158564937   T   T   T
  0.0000000000000017 15.1840668804367560 14.5616913034162927   T   T   T
  2.1955665555842310 11.7508023377346351 15.0058846332000293   T   T   T
 -1.0977832777921148 16.0990907913948220 15.5502392040134296   T   T   T
  3.2933498333763453  2.4209143515262568 15.1060458742296930   T   T   T
  3.2933498333763467  7.4025138840744402 14.4615300623866290   T   T   T
  0.0000000000000007  3.3359382624843250 16.0945937748268264   T   T   T
  2.1955665555842314  6.7692028051864508 15.6504004450430934   T   T   T
  3.2933498333763471  8.5088833955190495 16.5322548497608004   T   T   T
  2.1955665555842310 12.8571718491792435 17.0766094205742007   T   T   T
  0.0000000000000003 14.6411230331323079 16.8458030825493204   T   T   T
  3.2933498333763467  1.8779705042218062 17.3901576533627207   T   T   T
  1.0977832777921155  0.0940193202687433 17.6209639913876011   T   T   T
 -1.0977832777921159 10.5745474115421914 18.4788667949895213   T   T   T
  2.1955665555842314  6.2262589578819991 17.9345122241761210   T   T   T
  0.0000000000000003  4.4423077739289347 18.1653185622010014   T   T   T
  1.0977832777921157 11.3992040909167223 18.3721732991100950   T   T   T
  2.1955665555842310 15.4657797125068335 16.7391095866698940   T   T   T
 -0.0000000000000003 12.0325151698047144 17.1833029164536271   T   T   T
  1.0977832777921168 16.3808036234649030 17.7276574872670309   T   T   T
  1.0977832777921144  2.7026271835963351 17.2834641574832943   T   T   T
  1.0977832777921157  7.6842267161445177 16.6389483456402303   T   T   T
  2.1955665555842310  3.6176510945544034 18.2720120580804277   T   T   T
 -0.0000000000000011  7.0509156372565291 17.8278187282966947   T   T   T
 -1.0977832777921142 24.7751858818795085 10.0000000000000000   F   F   F
 -2.1955665555842288 29.1234743355397043 10.5443545708134003   F   F   F
  0.0000000000000018 30.9074255194927687 10.3135482327885164   F   F   F
 -1.0977832777921146 18.1442729905822659 10.8579028036019203   F   F   F
 -1.0977832777921137 33.4717627891999001 11.0887091416268007   F   F   F
 -1.0977832777921144 26.8408498979026504 11.9466119452287174   F   F   F
 -2.1955665555842296 22.4925614442424582 11.4022573744153171   F   F   F
  0.0000000000000009 20.7086102602893938 11.6330637124402010   F   F   F
 -3.2933498333763431 27.6655065772771813 11.8399184493492911   F   F   F
 -2.1955665555842283 31.7320821988672961 10.2068547369090901   F   F   F
  0.0000000000000013 28.2988176561651699 10.6510480666928267   F   F   F
 -3.2933498333763436 32.6471061098253585 11.1954026375062270   F   F   F
  1.0977832777921162 18.9689296699567933 10.7512093077224939   F   F   F
  1.0977832777921157 23.9505292025049776 10.1066934958794263   F   F   F
 -2.1955665555842288 19.8839535809148629 11.7397572083196273   F   F   F
  0.0000000000000004 23.3172181236169891 11.2955638785358907   F   F   F
  1.0977832777921162 25.0568987139495860 12.1774182832536013   F   F   F
  0.0000000000000018 29.4051871676097818 12.7217728540670016   F   F   F
 -2.1955665555842292 31.1891383515628462 12.4909665160421177   F   F   F
  1.0977832777921157 18.4259858226523434 13.0353210868555180   F   F   F
 -3.2933498333763422 33.7534756212699705 13.2661274248804020   F   F   F
 -3.2933498333763449 27.1225627299727279 14.1240302284823187   F   F   F
  0.0000000000000004 22.7742742763125392 13.5796756576689184   F   F   F
 -2.1955665555842292 20.9903230923594712 13.8104819956938023   F   F   F
 -1.0977832777921139 27.9472194093472623 14.0173367326028924   F   F   F
  0.0000000000000018 32.0137950309373736 12.3842730201626914   F   F   F
 -2.1955665555842279 28.5805304882352544 12.8284663499464280   F   F   F
 -1.0977832777921142 32.9288189418954360 13.3728209207598283   F   F   F
 -1.0977832777921142 19.2506425020268743 12.9286275909760917   F   F   F
 -1.0977832777921142 24.2322420345750551 12.2841117791330277   F   F   F
  0.0000000000000009 20.1656664129849403 13.9171754915732251   F   F   F
 -2.1955665555842288 23.5989309556870666 13.4729821617894920   F   F   F
 -1.0977832777921139 25.3386115460196670 14.3548365665072026   T   T   T
 -2.1955665555842301 29.6868999996798593 14.8991911373205994   T   T   T
  0.0000000000000000 31.4708511836329237 14.6683847992957190   T   T   T
 -1.0977832777921142 18.7076986547224244 15.2127393701091194   T   T   T
 -1.0977832777921122 34.0351884533400550 15.4435457081340033   T   T   T
 -1.0977832777921139 27.4042755620428089 16.3014485117359200   T   T   T
 -2.1955665555842288 23.0559871083826167 15.7570939409225197   T   T   T
  0.0000000000000009 21.2720359244295523 15.9879002789474001   T   T   T
 -3.2933498333763422 28.2289322414173398 16.1947550158564937   T   T   T
 -2.1955665555842279 32.2955078630074510 14.5616913034162927   T   T   T
  0.0000000000000013 28.8622433203053319 15.0058846332000293   T   T   T
 -3.2933498333763445 33.2105317739655135 15.5502392040134296   T   T   T
  1.0977832777921157 19.5323553340969518 15.1060458742296930   T   T   T
  1.0977832777921170 24.5139548666451361 14.4615300623866290   T   T   T
 -2.1955665555842288 20.4473792450550214 16.0945937748268264   T   T   T
  0.0000000000000018 23.8806437877571440 15.6504004450430934   T   T   T
  1.0977832777921175 25.6203243780897445 16.5322548497608004   T   T   T
  0.0000000000000013 29.9686128317499367 17.0766094205742007   T   T   T
 -2.1955665555842292 31.7525640157030011 16.8458030825493204   T   T   T
  1.0977832777921170 18.9894114867925019 17.3901576533627207   T   T   T
 -1.0977832777921142 17.2054603028394375 17.6209639913876011   T   T   T
 -3.2933498333763458 27.6859883941128864 18.4788667949895213   T   T   T
  0.0000000000000018 23.3376999404526941 17.9345122241761210   T   T   T
 -2.1955665555842292 21.5537487564996297 18.1653185622010014   T   T   T
 -1.0977832777921139 28.5106450734874173 18.3721732991100950   T   T   T
  0.0000000000000013 32.5772206950775285 16.7391095866698940   T   T   T
 -2.1955665555842301 29.1439561523754094 17.1833029164536271   T   T   T
 -1.0977832777921128 33.4922446060355981 17.7276574872670309   T   T   T
 -1.0977832777921153 19.8140681661670293 17.2834641574832943   T   T   T
 -1.0977832777921139 24.7956676987152136 16.6389483456402303   T   T   T
  0.0000000000000013 20.7290920771250988 18.2720120580804277   T   T   T
 -2.1955665555842305 24.1623566198272250 17.8278187282966947   T   T   T
 -3.2933498333763440 41.8866268644502071 10.0000000000000000   F   F   F
 -4.3911331111684584 46.2349153181103958 10.5443545708134003   F   F   F
 -2.1955665555842279 48.0188665020634602 10.3135482327885164   F   F   F
 -3.2933498333763440 35.2557139731529574 10.8579028036019203   F   F   F
 -3.2933498333763431 50.5832037717705916 11.0887091416268007   F   F   F
 -3.2933498333763440 43.9522908804733419 11.9466119452287174   F   F   F
 -4.3911331111684593 39.6040024268131532 11.4022573744153171   F   F   F
 -2.1955665555842288 37.8200512428600888 11.6330637124402010   F   F   F
 -5.4889163889605728 44.7769475598478763 11.8399184493492911   F   F   F
 -4.3911331111684584 48.8435231814379875 10.2068547369090901   F   F   F
 -2.1955665555842283 45.4102586387358684 10.6510480666928267   F   F   F
 -5.4889163889605737 49.7585470923960571 11.1954026375062270   F   F   F
 -1.0977832777921135 36.0803706525274919 10.7512093077224939   F   F   F
 -1.0977832777921139 41.0619701850756726 10.1066934958794263   F   F   F
 -4.3911331111684584 36.9953945634855614 11.7397572083196273   F   F   F
 -2.1955665555842292 40.4286591061876877 11.2955638785358907   F   F   F
 -1.0977832777921135 42.1683396965202846 12.1774182832536013   F   F   F
 -2.1955665555842279 46.5166281501804804 12.7217728540670016   F   F   F
 -4.3911331111684584 48.3005793341335448 12.4909665160421177   F   F   F
 -1.0977832777921139 35.5374268052230420 13.0353210868555180   F   F   F
 -5.4889163889605719 50.8649166038406690 13.2661274248804020   F   F   F
 -5.4889163889605745 44.2340037125434264 14.1240302284823187   F   F   F
 -2.1955665555842292 39.8857152588832307 13.5796756576689184   F   F   F
 -4.3911331111684593 38.1017640749301663 13.8104819956938023   F   F   F
 -3.2933498333763436 45.0586603919179538 14.0173367326028924   F   F   F
 -2.1955665555842279 49.1252360135080721 12.3842730201626914   F   F   F
 -4.3911331111684575 45.6919714708059459 12.8284663499464280   F   F   F
 -3.2933498333763440 50.0402599244661346 13.3728209207598283   F   F   F
 -3.2933498333763440 36.3620834845975693 12.9286275909760917   F   F   F
 -3.2933498333763440 41.3436830171457501 12.2841117791330277   F   F   F
 -2.1955665555842288 37.2771073955556389 13.9171754915732251   F   F   F
 -4.3911331111684584 40.7103719382577651 13.4729821617894920   F   F   F
 -3.2933498333763436 42.4500525285903620 14.3548365665072026   T   T   T
 -4.3911331111684593 46.7983409822505507 14.8991911373205994   T   T   T
 -2.1955665555842296 48.5822921662036151 14.6683847992957190   T   T   T
 -3.2933498333763440 35.8191396372931194 15.2127393701091194   T   T   T
 -3.2933498333763418 51.1466294359107465 15.4435457081340033   T   T   T
 -3.2933498333763436 44.5157165446135039 16.3014485117359200   T   T   T
 -4.3911331111684584 40.1674280909533081 15.7570939409225197   T   T   T
 -2.1955665555842288 38.3834769070002437 15.9879002789474001   T   T   T
 -5.4889163889605719 45.3403732239880384 16.1947550158564937   T   T   T
 -4.3911331111684575 49.4069488455781425 14.5616913034162927   T   T   T
 -2.1955665555842283 45.9736843028760234 15.0058846332000293   T   T   T
 -5.4889163889605737 50.3219727565362120 15.5502392040134296   T   T   T
 -1.0977832777921139 36.6437963166676468 15.1060458742296930   T   T   T
 -1.0977832777921126 41.6253958492158276 14.4615300623866290   T   T   T
 -4.3911331111684584 37.5588202276257164 16.0945937748268264   T   T   T
 -2.1955665555842279 40.9920847703278426 15.6504004450430934   T   T   T
 -1.0977832777921122 42.7317653606604395 16.5322548497608004   T   T   T
 -2.1955665555842283 47.0800538143206353 17.0766094205742007   T   T   T
 -4.3911331111684593 48.8640049982736997 16.8458030825493204   T   T   T
 -1.0977832777921126 36.1008524693631969 17.3901576533627207   T   T   T
 -3.2933498333763440 34.3169012854101325 17.6209639913876011   T   T   T
 -5.4889163889605754 44.7974293766835814 18.4788667949895213   T   T   T
 -2.1955665555842279 40.4491409230233927 17.9345122241761210   T   T   T
 -4.3911331111684593 38.6651897390703283 18.1653185622010014   T   T   T
 -3.2933498333763436 45.6220860560581087 18.3721732991100950   T   T   T
 -2.1955665555842283 49.6886616776482271 16.7391095866698940   T   T   T
 -4.3911331111684593 46.2553971349461079 17.1833029164536271   T   T   T
 -3.2933498333763422 50.6036855886062966 17.7276574872670309   T   T   T
 -3.2933498333763449 36.9255091487377243 17.2834641574832943   T   T   T
 -3.2933498333763436 41.9071086812859050 16.6389483456402303   T   T   T
 -2.1955665555842283 37.8405330596957938 18.2720120580804277   T   T   T
 -4.3911331111684602 41.2737976023979201 17.8278187282966947   T   T   T
 -5.4889163889605737 58.9980678470208986 10.0000000000000000   F   F   F
 -6.5866996667526880 63.3463563006810872 10.5443545708134003   F   F   F
 -4.3911331111684575 65.1303074846341588 10.3135482327885164   F   F   F
 -5.4889163889605737 52.3671549557236489 10.8579028036019203   F   F   F
 -5.4889163889605728 67.6946447543412830 11.0887091416268007   F   F   F
 -5.4889163889605737 61.0637318630440404 11.9466119452287174   F   F   F
 -6.5866996667526889 56.7154434093838447 11.4022573744153171   F   F   F
 -4.3911331111684584 54.9314922254307803 11.6330637124402010   F   F   F
 -7.6844829445448024 61.8883885424185678 11.8399184493492911   F   F   F
 -6.5866996667526880 65.9549641640086861 10.2068547369090901   F   F   F
 -4.3911331111684575 62.5216996213065599 10.6510480666928267   F   F   F
 -7.6844829445448024 66.8699880749667415 11.1954026375062270   F   F   F
 -3.2933498333763431 53.1918116350981833 10.7512093077224939   F   F   F
 -3.2933498333763436 58.1734111676463641 10.1066934958794263   F   F   F
 -6.5866996667526880 54.1068355460562458 11.7397572083196273   F   F   F
 -4.3911331111684593 57.5401000887583791 11.2955638785358907   F   F   F
 -3.2933498333763431 59.2797806790909760 12.1774182832536013   F   F   F
 -4.3911331111684575 63.6280691327511647 12.7217728540670016   F   F   F
 -6.5866996667526880 65.4120203167042291 12.4909665160421177   F   F   F
 -3.2933498333763436 52.6488677877937334 13.0353210868555180   F   F   F
 -7.6844829445448015 67.9763575864113534 13.2661274248804020   F   F   F
 -7.6844829445448042 61.3454446951141179 14.1240302284823187   F   F   F
 -4.3911331111684593 56.9971562414539221 13.5796756576689184   F   F   F
 -6.5866996667526889 55.2132050575008577 13.8104819956938023   F   F   F
 -5.4889163889605737 62.1701013744886453 14.0173367326028924   F   F   F
 -4.3911331111684575 66.2366769960787565 12.3842730201626914   F   F   F
 -6.5866996667526871 62.8034124533766374 12.8284663499464280   F   F   F
 -5.4889163889605737 67.1517009070368260 13.3728209207598283   F   F   F
 -5.4889163889605737 53.4735244671682608 12.9286275909760917   F   F   F
 -5.4889163889605737 58.4551239997164416 12.2841117791330277   F   F   F
 -4.3911331111684584 54.3885483781263304 13.9171754915732251   F   F   F
 -6.5866996667526880 57.8218129208284566 13.4729821617894920   F   F   F
 -5.4889163889605737 59.5614935111610535 14.3548365665072026   T   T   T
 -6.5866996667526889 63.9097819648212493 14.8991911373205994   T   T   T
 -4.3911331111684593 65.6937331487743137 14.6683847992957190   T   T   T
 -5.4889163889605737 52.9305806198638109 15.2127393701091194   T   T   T
 -5.4889163889605719 68.2580704184814380 15.4435457081340033   T   T   T
 -5.4889163889605737 61.6271575271841954 16.3014485117359200   T   T   T
 -6.5866996667526880 57.2788690735239996 15.7570939409225197   T   T   T
 -4.3911331111684584 55.4949178895709352 15.9879002789474001   T   T   T
 -7.6844829445448015 62.4518142065587227 16.1947550158564937   T   T   T
 -6.5866996667526871 66.5183898281488410 14.5616913034162927   T   T   T
 -4.3911331111684575 63.0851252854467148 15.0058846332000293   T   T   T
 -7.6844829445448042 67.4334137391068964 15.5502392040134296   T   T   T
 -3.2933498333763436 53.7552372992383383 15.1060458742296930   T   T   T
 -3.2933498333763422 58.7368368317865190 14.4615300623866290   T   T   T
 -6.5866996667526880 54.6702612101964078 16.0945937748268264   T   T   T
 -4.3911331111684575 58.1035257528985341 15.6504004450430934   T   T   T
 -3.2933498333763418 59.8432063432311310 16.5322548497608004   T   T   T
 -4.3911331111684575 64.1914947968913197 17.0766094205742007   T   T   T
 -6.5866996667526889 65.9754459808443841 16.8458030825493204   T   T   T
 -3.2933498333763422 53.2122934519338884 17.3901576533627207   T   T   T
 -5.4889163889605737 51.4283422679808240 17.6209639913876011   T   T   T
 -7.6844829445448051 61.9088703592542728 18.4788667949895213   T   T   T
 -4.3911331111684575 57.5605819055940771 17.9345122241761210   T   T   T
 -6.5866996667526889 55.7766307216410127 18.1653185622010014   T   T   T
 -5.4889163889605737 62.7335270386288073 18.3721732991100950   T   T   T
 -4.3911331111684575 66.8001026602189114 16.7391095866698940   T   T   T
 -6.5866996667526889 63.3668381175167923 17.1833029164536271   T   T   T
 -5.4889163889605719 67.7151265711769810 17.7276574872670309   T   T   T
 -5.4889163889605745 54.0369501313084157 17.2834641574832943   T   T   T
 -5.4889163889605737 59.0185496638565965 16.6389483456402303   T   T   T
 -4.3911331111684575 54.9519740422664853 18.2720120580804277   T   T   T
 -6.5866996667526898 58.3852385849686115 17.8278187282966947   T   T   T
  5.4889163889605754  7.6637448993088144 10.0000000000000000   F   F   F
  4.3911331111684611 12.0120333529690075 10.5443545708134003   F   F   F
  6.5866996667526916 13.7959845369220719 10.3135482327885164   F   F   F
  5.4889163889605754  1.0328320080115707 10.8579028036019203   F   F   F
  5.4889163889605763 16.3603218066292015 11.0887091416268007   F   F   F
  5.4889163889605754  9.7294089153319554 11.9466119452287174   F   F   F
  4.3911331111684602  5.3811204616717641 11.4022573744153171   F   F   F
  6.5866996667526907  3.5971692777186983 11.6330637124402010   F   F   F
  3.2933498333763467 10.5540655947064863 11.8399184493492911   F   F   F
  4.3911331111684611 14.6206412162965993 10.2068547369090901   F   F   F
  6.5866996667526916 11.1873766735944766 10.6510480666928267   F   F   F
  3.2933498333763462 15.5356651272546653 11.1954026375062270   F   F   F
  7.6844829445448060  1.8574886873860998 10.7512093077224939   F   F   F
  7.6844829445448060  6.8390882199342817 10.1066934958794263   F   F   F
  4.3911331111684611  2.7725125983441679 11.7397572083196273   F   F   F
  6.5866996667526898  6.2057771410462950 11.2955638785358907   F   F   F
  7.6844829445448060  7.9454577313788928 12.1774182832536013   F   F   F
  6.5866996667526916 12.2937461850390868 12.7217728540670016   F   F   F
  4.3911331111684611 14.0776973689921512 12.4909665160421177   F   F   F
  7.6844829445448060  1.3145448400816491 13.0353210868555180   F   F   F
  3.2933498333763476 16.6420346386992790 13.2661274248804020   F   F   F
  3.2933498333763449 10.0111217474020346 14.1240302284823187   F   F   F
  6.5866996667526898  5.6628332937418424 13.5796756576689184   F   F   F
  4.3911331111684602  3.8788821097887776 13.8104819956938023   F   F   F
  5.4889163889605754 10.8357784267765656 14.0173367326028924   F   F   F
  6.5866996667526916 14.9023540483666785 12.3842730201626914   F   F   F
  4.3911331111684619 11.4690895056645576 12.8284663499464280   F   F   F
  5.4889163889605754 15.8173779593247428 13.3728209207598283   F   F   F
  5.4889163889605754  2.1392015194561784 12.9286275909760917   F   F   F
  5.4889163889605754  7.1208010520043610 12.2841117791330277   F   F   F
  6.5866996667526907  3.0542254304142467 13.9171754915732251   F   F   F
  4.3911331111684611  6.4874899731163733 13.4729821617894920   F   F   F
  5.4889163889605754  8.2271705634489720 14.3548365665072026   T   T   T
  4.3911331111684602 12.5754590171091643 14.8991911373205994   T   T   T
  6.5866996667526898 14.3594102010622287 14.6683847992957190   T   T   T
  5.4889163889605754  1.5962576721517279 15.2127393701091194   T   T   T
  5.4889163889605772 16.9237474707693565 15.4435457081340033   T   T   T
  5.4889163889605754 10.2928345794721139 16.3014485117359200   T   T   T
  4.3911331111684611  5.9445461258119208 15.7570939409225197   T   T   T
  6.5866996667526907  4.1605949418588555 15.9879002789474001   T   T   T
  3.2933498333763476 11.1174912588466448 16.1947550158564937   T   T   T
  4.3911331111684619 15.1840668804367560 14.5616913034162927   T   T   T
  6.5866996667526916 11.7508023377346351 15.0058846332000293   T   T   T
  3.2933498333763453 16.0990907913948220 15.5502392040134296   T   T   T
  7.6844829445448060  2.4209143515262568 15.1060458742296930   T   T   T
  7.6844829445448068  7.4025138840744402 14.4615300623866290   T   T   T
  4.3911331111684611  3.3359382624843250 16.0945937748268264   T   T   T
  6.5866996667526916  6.7692028051864508 15.6504004450430934   T   T   T
  7.6844829445448077  8.5088833955190495 16.5322548497608004   T   T   T
  6.5866996667526916 12.8571718491792435 17.0766094205742007   T   T   T
  4.3911331111684602 14.6411230331323079 16.8458030825493204   T   T   T
  7.6844829445448068  1.8779705042218062 17.3901576533627207   T   T   T
  5.4889163889605754  0.0940193202687433 17.6209639913876011   T   T   T
  3.2933498333763440 10.5745474115421914 18.4788667949895213   T   T   T
  6.5866996667526916  6.2262589578819991 17.9345122241761210   T   T   T
  4.3911331111684602  4.4423077739289347 18.1653185622010014   T   T   T
  5.4889163889605754 11.3992040909167223 18.3721732991100950   T   T   T
  6.5866996667526916 15.4657797125068335 16.7391095866698940   T   T   T
  4.3911331111684602 12.0325151698047144 17.1833029164536271   T   T   T
  5.4889163889605772 16.3808036234649030 17.7276574872670309   T   T   T
  5.4889163889605745  2.7026271835963351 17.2834641574832943   T   T   T
  5.4889163889605754  7.6842267161445177 16.6389483456402303   T   T   T
  6.5866996667526916  3.6176510945544034 18.2720120580804277   T   T   T
  4.3911331111684593  7.0509156372565291 17.8278187282966947   T   T   T
  3.2933498333763458 24.7751858818795085 10.0000000000000000   F   F   F
  2.1955665555842314 29.1234743355397043 10.5443545708134003   F   F   F
  4.3911331111684619 30.9074255194927687 10.3135482327885164   F   F   F
  3.2933498333763458 18.1442729905822659 10.8579028036019203   F   F   F
  3.2933498333763467 33.4717627891999001 11.0887091416268007   F   F   F
  3.2933498333763458 26.8408498979026504 11.9466119452287174   F   F   F
  2.1955665555842305 22.4925614442424582 11.4022573744153171   F   F   F
  4.3911331111684611 20.7086102602893938 11.6330637124402010   F   F   F
  1.0977832777921173 27.6655065772771813 11.8399184493492911   F   F   F
  2.1955665555842319 31.7320821988672961 10.2068547369090901   F   F   F
  4.3911331111684611 28.2988176561651699 10.6510480666928267   F   F   F
  1.0977832777921166 32.6471061098253585 11.1954026375062270   F   F   F
  5.4889163889605763 18.9689296699567933 10.7512093077224939   F   F   F
  5.4889163889605754 23.9505292025049776 10.1066934958794263   F   F   F
  2.1955665555842314 19.8839535809148629 11.7397572083196273   F   F   F
  4.3911331111684611 23.3172181236169891 11.2955638785358907   F   F   F
  5.4889163889605763 25.0568987139495860 12.1774182832536013   F   F   F
  4.3911331111684619 29.4051871676097818 12.7217728540670016   F   F   F
  2.1955665555842310 31.1891383515628462 12.4909665160421177   F   F   F
  5.4889163889605754 18.4259858226523434 13.0353210868555180   F   F   F
  1.0977832777921177 33.7534756212699705 13.2661274248804020   F   F   F
  1.0977832777921155 27.1225627299727279 14.1240302284823187   F   F   F
  4.3911331111684611 22.7742742763125392 13.5796756576689184   F   F   F
  2.1955665555842310 20.9903230923594712 13.8104819956938023   F   F   F
  3.2933498333763462 27.9472194093472623 14.0173367326028924   F   F   F
  4.3911331111684619 32.0137950309373736 12.3842730201626914   F   F   F
  2.1955665555842323 28.5805304882352544 12.8284663499464280   F   F   F
  3.2933498333763458 32.9288189418954360 13.3728209207598283   F   F   F
  3.2933498333763458 19.2506425020268743 12.9286275909760917   F   F   F
  3.2933498333763458 24.2322420345750551 12.2841117791330277   F   F   F
  4.3911331111684611 20.1656664129849403 13.9171754915732251   F   F   F
  2.1955665555842314 23.5989309556870666 13.4729821617894920   F   F   F
  3.2933498333763462 25.3386115460196670 14.3548365665072026   T   T   T
  2.1955665555842301 29.6868999996798593 14.8991911373205994   T   T   T
  4.3911331111684602 31.4708511836329237 14.6683847992957190   T   T   T
  3.2933498333763458 18.7076986547224244 15.2127393701091194   T   T   T
  3.2933498333763480 34.0351884533400550 15.4435457081340033   T   T   T
  3.2933498333763462 27.4042755620428089 16.3014485117359200   T   T   T
  2.1955665555842314 23.0559871083826167 15.7570939409225197   T   T   T
  4.3911331111684611 21.2720359244295523 15.9879002789474001   T   T   T
  1.0977832777921179 28.2289322414173398 16.1947550158564937   T   T   T
  2.1955665555842323 32.2955078630074510 14.5616913034162927   T   T   T
  4.3911331111684611 28.8622433203053319 15.0058846332000293   T   T   T
  1.0977832777921157 33.2105317739655135 15.5502392040134296   T   T   T
  5.4889163889605754 19.5323553340969518 15.1060458742296930   T   T   T
  5.4889163889605772 24.5139548666451361 14.4615300623866290   T   T   T
  2.1955665555842314 20.4473792450550214 16.0945937748268264   T   T   T
  4.3911331111684619 23.8806437877571440 15.6504004450430934   T   T   T
  5.4889163889605772 25.6203243780897445 16.5322548497608004   T   T   T
  4.3911331111684611 29.9686128317499367 17.0766094205742007   T   T   T
  2.1955665555842310 31.7525640157030011 16.8458030825493204   T   T   T
  5.4889163889605772 18.9894114867925019 17.3901576533627207   T   T   T
  3.2933498333763458 17.2054603028394375 17.6209639913876011   T   T   T
  1.0977832777921146 27.6859883941128864 18.4788667949895213   T   T   T
  4.3911331111684619 23.3376999404526941 17.9345122241761210   T   T   T
  2.1955665555842310 21.5537487564996297 18.1653185622010014   T   T   T
  3.2933498333763462 28.5106450734874173 18.3721732991100950   T   T   T
  4.3911331111684611 32.5772206950775285 16.7391095866698940   T   T   T
  2.1955665555842301 29.1439561523754094 17.1833029164536271   T   T   T
  3.2933498333763476 33.4922446060355981 17.7276574872670309   T   T   T
  3.2933498333763449 19.8140681661670293 17.2834641574832943   T   T   T
  3.2933498333763462 24.7956676987152136 16.6389483456402303   T   T   T
  4.3911331111684611 20.7290920771250988 18.2720120580804277   T   T   T
  2.1955665555842296 24.1623566198272250 17.8278187282966947   T   T   T
  1.0977832777921164 41.8866268644502071 10.0000000000000000   F   F   F
  0.0000000000000016 46.2349153181103958 10.5443545708134003   F   F   F
  2.1955665555842323 48.0188665020634602 10.3135482327885164   F   F   F
  1.0977832777921159 35.2557139731529574 10.8579028036019203   F   F   F
  1.0977832777921168 50.5832037717705916 11.0887091416268007   F   F   F
  1.0977832777921162 43.9522908804733419 11.9466119452287174   F   F   F
  0.0000000000000011 39.6040024268131532 11.4022573744153171   F   F   F
  2.1955665555842314 37.8200512428600888 11.6330637124402010   F   F   F
 -1.0977832777921124 44.7769475598478763 11.8399184493492911   F   F   F
  0.0000000000000021 48.8435231814379875 10.2068547369090901   F   F   F
  2.1955665555842319 45.4102586387358684 10.6510480666928267   F   F   F
 -1.0977832777921130 49.7585470923960571 11.1954026375062270   F   F   F
  3.2933498333763467 36.0803706525274919 10.7512093077224939   F   F   F
  3.2933498333763462 41.0619701850756726 10.1066934958794263   F   F   F
  0.0000000000000017 36.9953945634855614 11.7397572083196273   F   F   F
  2.1955665555842310 40.4286591061876877 11.2955638785358907   F   F   F
  3.2933498333763467 42.1683396965202846 12.1774182832536013   F   F   F
  2.1955665555842323 46.5166281501804804 12.7217728540670016   F   F   F
  0.0000000000000014 48.3005793341335448 12.4909665160421177   F   F   F
  3.2933498333763462 35.5374268052230420 13.0353210868555180   F   F   F
 -1.0977832777921119 50.8649166038406690 13.2661274248804020   F   F   F
 -1.0977832777921142 44.2340037125434264 14.1240302284823187   F   F   F
  2.1955665555842310 39.8857152588832307 13.5796756576689184   F   F   F
  0.0000000000000013 38.1017640749301663 13.8104819956938023   F   F   F
  1.0977832777921166 45.0586603919179538 14.0173367326028924   F   F   F
  2.1955665555842323 49.1252360135080721 12.3842730201626914   F   F   F
  0.0000000000000025 45.6919714708059459 12.8284663499464280   F   F   F
  1.0977832777921164 50.0402599244661346 13.3728209207598283   F   F   F
  1.0977832777921164 36.3620834845975693 12.9286275909760917   F   F   F
  1.0977832777921164 41.3436830171457501 12.2841117791330277   F   F   F
  2.1955665555842314 37.2771073955556389 13.9171754915732251   F   F   F
  0.0000000000000016 40.7103719382577651 13.4729821617894920   F   F   F
  1.0977832777921166 42.4500525285903620 14.3548365665072026   T   T   T
  0.0000000000000006 46.7983409822505507 14.8991911373205994   T   T   T
  2.1955665555842305 48.5822921662036151 14.6683847992957190   T   T   T
  1.0977832777921164 35.8191396372931194 15.2127393701091194   T   T   T
  1.0977832777921184 51.1466294359107465 15.4435457081340033   T   T   T
  1.0977832777921166 44.5157165446135039 16.3014485117359200   T   T   T
  0.0000000000000020 40.1674280909533081 15.7570939409225197   T   T   T
  2.1955665555842314 38.3834769070002437 15.9879002789474001   T   T   T
 -1.0977832777921117 45.3403732239880384 16.1947550158564937   T   T   T
  0.0000000000000025 49.4069488455781425 14.5616913034162927   T   T   T
  2.1955665555842319 45.9736843028760234 15.0058846332000293   T   T   T
 -1.0977832777921139 50.3219727565362120 15.5502392040134296   T   T   T
  3.2933498333763462 36.6437963166676468 15.1060458742296930   T   T   T
  3.2933498333763476 41.6253958492158276 14.4615300623866290   T   T   T
  0.0000000000000016 37.5588202276257164 16.0945937748268264   T   T   T
  2.1955665555842323 40.9920847703278426 15.6504004450430934   T   T   T
  3.2933498333763480 42.7317653606604395 16.5322548497608004   T   T   T
  2.1955665555842319 47.0800538143206353 17.0766094205742007   T   T   T
  0.0000000000000012 48.8640049982736997 16.8458030825493204   T   T   T
  3.2933498333763476 36.1008524693631969 17.3901576533627207   T   T   T
  1.0977832777921164 34.3169012854101325 17.6209639913876011   T   T   T
 -1.0977832777921150 44.7974293766835814 18.4788667949895213   T   T   T
  2.1955665555842323 40.4491409230233927 17.9345122241761210   T   T   T
  0.0000000000000012 38.6651897390703283 18.1653185622010014   T   T   T
  1.0977832777921166 45.6220860560581087 18.3721732991100950   T   T   T
  2.1955665555842319 49.6886616776482271 16.7391095866698940   T   T   T
  0.0000000000000006 46.2553971349461079 17.1833029164536271   T   T   T
  1.0977832777921177 50.6036855886062966 17.7276574872670309   T   T   T
  1.0977832777921153 36.9255091487377243 17.2834641574832943   T   T   T
  1.0977832777921166 41.9071086812859050 16.6389483456402303   T   T   T
  2.1955665555842319 37.8405330596957938 18.2720120580804277   T   T   T
 -0.0000000000000002 41.2737976023979201 17.8278187282966947   T   T   T
 -1.0977832777921133 58.9980678470208986 10.0000000000000000   F   F   F
 -2.1955665555842279 63.3463563006810872 10.5443545708134003   F   F   F
  0.0000000000000027 65.1303074846341588 10.3135482327885164   F   F   F
 -1.0977832777921137 52.3671549557236489 10.8579028036019203   F   F   F
 -1.0977832777921128 67.6946447543412830 11.0887091416268007   F   F   F
 -1.0977832777921135 61.0637318630440404 11.9466119452287174   F   F   F
 -2.1955665555842288 56.7154434093838447 11.4022573744153171   F   F   F
  0.0000000000000018 54.9314922254307803 11.6330637124402010   F   F   F
 -3.2933498333763422 61.8883885424185678 11.8399184493492911   F   F   F
 -2.1955665555842274 65.9549641640086861 10.2068547369090901   F   F   F
  0.0000000000000022 62.5216996213065599 10.6510480666928267   F   F   F
 -3.2933498333763427 66.8699880749667415 11.1954026375062270   F   F   F
  1.0977832777921170 53.1918116350981833 10.7512093077224939   F   F   F
  1.0977832777921166 58.1734111676463641 10.1066934958794263   F   F   F
 -2.1955665555842279 54.1068355460562458 11.7397572083196273   F   F   F
  0.0000000000000013 57.5401000887583791 11.2955638785358907   F   F   F
  1.0977832777921170 59.2797806790909760 12.1774182832536013   F   F   F
  0.0000000000000027 63.6280691327511647 12.7217728540670016   F   F   F
 -2.1955665555842283 65.4120203167042291 12.4909665160421177   F   F   F
  1.0977832777921166 52.6488677877937334 13.0353210868555180   F   F   F
 -3.2933498333763414 67.9763575864113534 13.2661274248804020   F   F   F
 -3.2933498333763440 61.3454446951141179 14.1240302284823187   F   F   F
  0.0000000000000013 56.9971562414539221 13.5796756576689184   F   F   F
 -2.1955665555842283 55.2132050575008577 13.8104819956938023   F   F   F
 -1.0977832777921130 62.1701013744886453 14.0173367326028924   F   F   F
  0.0000000000000027 66.2366769960787565 12.3842730201626914   F   F   F
 -2.1955665555842270 62.8034124533766374 12.8284663499464280   F   F   F
 -1.0977832777921133 67.1517009070368260 13.3728209207598283   F   F   F
 -1.0977832777921133 53.4735244671682608 12.9286275909760917   F   F   F
 -1.0977832777921133 58.4551239997164416 12.2841117791330277   F   F   F
  0.0000000000000018 54.3885483781263304 13.9171754915732251   F   F   F
 -2.1955665555842279 57.8218129208284566 13.4729821617894920   F   F   F
 -1.0977832777921130 59.5614935111610535 14.3548365665072026   T   T   T
 -2.1955665555842292 63.9097819648212493 14.8991911373205994   T   T   T
  0.0000000000000009 65.6937331487743137 14.6683847992957190   T   T   T
 -1.0977832777921133 52.9305806198638109 15.2127393701091194   T   T   T
 -1.0977832777921113 68.2580704184814380 15.4435457081340033   T   T   T
 -1.0977832777921130 61.6271575271841954 16.3014485117359200   T   T   T
 -2.1955665555842279 57.2788690735239996 15.7570939409225197   T   T   T
  0.0000000000000018 55.4949178895709352 15.9879002789474001   T   T   T
 -3.2933498333763414 62.4518142065587227 16.1947550158564937   T   T   T
 -2.1955665555842270 66.5183898281488410 14.5616913034162927   T   T   T
  0.0000000000000022 63.0851252854467148 15.0058846332000293   T   T   T
 -3.2933498333763436 67.4334137391068964 15.5502392040134296   T   T   T
  1.0977832777921166 53.7552372992383383 15.1060458742296930   T   T   T
  1.0977832777921179 58.7368368317865190 14.4615300623866290   T   T   T
 -2.1955665555842279 54.6702612101964078 16.0945937748268264   T   T   T
  0.0000000000000027 58.1035257528985341 15.6504004450430934   T   T   T
  1.0977832777921184 59.8432063432311310 16.5322548497608004   T   T   T
  0.0000000000000022 64.1914947968913197 17.0766094205742007   T   T   T
 -2.1955665555842283 65.9754459808443841 16.8458030825493204   T   T   T
  1.0977832777921179 53.2122934519338884 17.3901576533627207   T   T   T
 -1.0977832777921133 51.4283422679808240 17.6209639913876011   T   T   T
 -3.2933498333763449 61.9088703592542728 18.4788667949895213   T   T   T
  0.0000000000000027 57.5605819055940771 17.9345122241761210   T   T   T
 -2.1955665555842283 55.7766307216410127 18.1653185622010014   T   T   T
 -1.0977832777921130 62.7335270386288073 18.3721732991100950   T   T   T
  0.0000000000000022 66.8001026602189114 16.7391095866698940   T   T   T
 -2.1955665555842292 63.3668381175167923 17.1833029164536271   T   T   T
 -1.0977832777921119 67.7151265711769810 17.7276574872670309   T   T   T
 -1.0977832777921144 54.0369501313084157 17.2834641574832943   T   T   T
 -1.0977832777921130 59.0185496638565965 16.6389483456402303   T   T   T
  0.0000000000000022 54.9519740422664853 18.2720120580804277   T   T   T
 -2.1955665555842296 58.3852385849686115 17.8278187282966947   T   T   T
  9.8800495001290365  7.6637448993088144 10.0000000000000000   F   F   F
  8.7822662223369203 12.0120333529690075 10.5443545708134003   F   F   F
 10.9778327779211509 13.7959845369220719 10.3135482327885164   F   F   F
  9.8800495001290347  1.0328320080115707 10.8579028036019203   F   F   F
  9.8800495001290365 16.3603218066292015 11.0887091416268007   F   F   F
  9.8800495001290365  9.7294089153319554 11.9466119452287174   F   F   F
  8.7822662223369203  5.3811204616717641 11.4022573744153171   F   F   F
 10.9778327779211509  3.5971692777186983 11.6330637124402010   F   F   F
  7.6844829445448068 10.5540655947064863 11.8399184493492911   F   F   F
  8.7822662223369221 14.6206412162965993 10.2068547369090901   F   F   F
 10.9778327779211509 11.1873766735944766 10.6510480666928267   F   F   F
  7.6844829445448060 15.5356651272546653 11.1954026375062270   F   F   F
 12.0756160557132652  1.8574886873860998 10.7512093077224939   F   F   F
 12.0756160557132652  6.8390882199342817 10.1066934958794263   F   F   F
  8.7822662223369203  2.7725125983441679 11.7397572083196273   F   F   F
 10.9778327779211509  6.2057771410462950 11.2955638785358907   F   F   F
 12.0756160557132652  7.9454577313788928 12.1774182832536013   F   F   F
 10.9778327779211509 12.2937461850390868 12.7217728540670016   F   F   F
  8.7822662223369203 14.0776973689921512 12.4909665160421177   F   F   F
 12.0756160557132652  1.3145448400816491 13.0353210868555180   F   F   F
  7.6844829445448077 16.6420346386992790 13.2661274248804020   F   F   F
  7.6844829445448051 10.0111217474020346 14.1240302284823187   F   F   F
 10.9778327779211509  5.6628332937418424 13.5796756576689184   F   F   F
  8.7822662223369203  3.8788821097887776 13.8104819956938023   F   F   F
  9.8800495001290365 10.8357784267765656 14.0173367326028924   F   F   F
 10.9778327779211509 14.9023540483666785 12.3842730201626914   F   F   F
  8.7822662223369221 11.4690895056645576 12.8284663499464280   F   F   F
  9.8800495001290365 15.8173779593247428 13.3728209207598283   F   F   F
  9.8800495001290365  2.1392015194561784 12.9286275909760917   F   F   F
  9.8800495001290365  7.1208010520043610 12.2841117791330277   F   F   F
 10.9778327779211509  3.0542254304142467 13.9171754915732251   F   F   F
  8.7822662223369203  6.4874899731163733 13.4729821617894920   F   F   F
  9.8800495001290365  8.2271705634489720 14.3548365665072026   T   T   T
  8.7822662223369203 12.5754590171091643 14.8991911373205994   T   T   T
 10.9778327779211509 14.3594102010622287 14.6683847992957190   T   T   T
  9.8800495001290365  1.5962576721517279 15.2127393701091194   T   T   T
  9.8800495001290383 16.9237474707693565 15.4435457081340033   T   T   T
  9.8800495001290365 10.2928345794721139 16.3014485117359200   T   T   T
  8.7822662223369221  5.9445461258119208 15.7570939409225197   T   T   T
 10.9778327779211509  4.1605949418588555 15.9879002789474001   T   T   T
  7.6844829445448077 11.1174912588466448 16.1947550158564937   T   T   T
  8.7822662223369221 15.1840668804367560 14.5616913034162927   T   T   T
 10.9778327779211509 11.7508023377346351 15.0058846332000293   T   T   T
  7.6844829445448060 16.0990907913948220 15.5502392040134296   T   T   T
 12.0756160557132652  2.4209143515262568 15.1060458742296930   T   T   T
 12.0756160557132670  7.4025138840744402 14.4615300623866290   T   T   T
  8.7822662223369203  3.3359382624843250 16.0945937748268264   T   T   T
 10.9778327779211509  6.7692028051864508 15.6504004450430934   T   T   T
 12.0756160557132670  8.5088833955190495 16.5322548497608004   T   T   T
 10.9778327779211509 12.8571718491792435 17.0766094205742007   T   T   T
  8.7822662223369203 14.6411230331323079 16.8458030825493204   T   T   T
 12.0756160557132670  1.8779705042218062 17.3901576533627207   T   T   T
  9.8800495001290365  0.0940193202687433 17.6209639913876011   T   T   T
  7.6844829445448042 10.5745474115421914 18.4788667949895213   T   T   T
 10.9778327779211509  6.2262589578819991 17.9345122241761210   T   T   T
  8.7822662223369203  4.4423077739289347 18.1653185622010014   T   T   T
  9.8800495001290365 11.3992040909167223 18.3721732991100950   T   T   T
 10.9778327779211509 15.4657797125068335 16.7391095866698940   T   T   T
  8.7822662223369203 12.0325151698047144 17.1833029164536271   T   T   T
  9.8800495001290365 16.3808036234649030 17.7276574872670309   T   T   T
  9.8800495001290347  2.7026271835963351 17.2834641574832943   T   T   T
  9.8800495001290365  7.6842267161445177 16.6389483456402303   T   T   T
 10.9778327779211509  3.6176510945544034 18.2720120580804277   T   T   T
  8.7822662223369186  7.0509156372565291 17.8278187282966947   T   T   T
  7.6844829445448060 24.7751858818795085 10.0000000000000000   F   F   F
  6.5866996667526916 29.1234743355397043 10.5443545708134003   F   F   F
  8.7822662223369221 30.9074255194927687 10.3135482327885164   F   F   F
  7.6844829445448060 18.1442729905822659 10.8579028036019203   F   F   F
  7.6844829445448068 33.4717627891999001 11.0887091416268007   F   F   F
  7.6844829445448060 26.8408498979026504 11.9466119452287174   F   F   F
  6.5866996667526907 22.4925614442424582 11.4022573744153171   F   F   F
  8.7822662223369221 20.7086102602893938 11.6330637124402010   F   F   F
  5.4889163889605772 27.6655065772771813 11.8399184493492911   F   F   F
  6.5866996667526916 31.7320821988672961 10.2068547369090901   F   F   F
  8.7822662223369221 28.2988176561651699 10.6510480666928267   F   F   F
  5.4889163889605772 32.6471061098253585 11.1954026375062270   F   F   F
  9.8800495001290365 18.9689296699567933 10.7512093077224939   F   F   F
  9.8800495001290365 23.9505292025049776 10.1066934958794263   F   F   F
  6.5866996667526916 19.8839535809148629 11.7397572083196273   F   F   F
  8.7822662223369203 23.3172181236169891 11.2955638785358907   F   F   F
  9.8800495001290365 25.0568987139495860 12.1774182832536013   F   F   F
  8.7822662223369221 29.4051871676097818 12.7217728540670016   F   F   F
  6.5866996667526916 31.1891383515628462 12.4909665160421177   F   F   F
  9.8800495001290365 18.4259858226523434 13.0353210868555180   F   F   F
  5.4889163889605781 33.7534756212699705 13.2661274248804020   F   F   F
  5.4889163889605754 27.1225627299727279 14.1240302284823187   F   F   F
  8.7822662223369203 22.7742742763125392 13.5796756576689184   F   F   F
  6.5866996667526907 20.9903230923594712 13.8104819956938023   F   F   F
  7.6844829445448060 27.9472194093472623 14.0173367326028924   F   F   F
  8.7822662223369221 32.0137950309373736 12.3842730201626914   F   F   F
  6.5866996667526925 28.5805304882352544 12.8284663499464280   F   F   F
  7.6844829445448060 32.9288189418954360 13.3728209207598283   F   F   F
  7.6844829445448060 19.2506425020268743 12.9286275909760917   F   F   F
  7.6844829445448060 24.2322420345750551 12.2841117791330277   F   F   F
  8.7822662223369221 20.1656664129849403 13.9171754915732251   F   F   F
  6.5866996667526916 23.5989309556870666 13.4729821617894920   F   F   F
  7.6844829445448060 25.3386115460196670 14.3548365665072026   T   T   T
  6.5866996667526907 29.6868999996798593 14.8991911373205994   T   T   T
  8.7822662223369203 31.4708511836329237 14.6683847992957190   T   T   T
  7.6844829445448060 18.7076986547224244 15.2127393701091194   T   T   T
  7.6844829445448077 34.0351884533400550 15.4435457081340033   T   T   T
  7.6844829445448060 27.4042755620428089 16.3014485117359200   T   T   T
  6.5866996667526916 23.0559871083826167 15.7570939409225197   T   T   T
  8.7822662223369221 21.2720359244295523 15.9879002789474001   T   T   T
  5.4889163889605781 28.2289322414173398 16.1947550158564937   T   T   T
  6.5866996667526925 32.2955078630074510 14.5616913034162927   T   T   T
  8.7822662223369221 28.8622433203053319 15.0058846332000293   T   T   T
  5.4889163889605754 33.2105317739655135 15.5502392040134296   T   T   T
  9.8800495001290365 19.5323553340969518 15.1060458742296930   T   T   T
  9.8800495001290365 24.5139548666451361 14.4615300623866290   T   T   T
  6.5866996667526916 20.4473792450550214 16.0945937748268264   T   T   T
  8.7822662223369221 23.8806437877571440 15.6504004450430934   T   T   T
  9.8800495001290383 25.6203243780897445 16.5322548497608004   T   T   T
  8.7822662223369221 29.9686128317499367 17.0766094205742007   T   T   T
  6.5866996667526907 31.7525640157030011 16.8458030825493204   T   T   T
  9.8800495001290365 18.9894114867925019 17.3901576533627207   T   T   T
  7.6844829445448060 17.2054603028394375 17.6209639913876011   T   T   T
  5.4889163889605745 27.6859883941128864 18.4788667949895213   T   T   T
  8.7822662223369221 23.3376999404526941 17.9345122241761210   T   T   T
  6.5866996667526907 21.5537487564996297 18.1653185622010014   T   T   T
  7.6844829445448060 28.5106450734874173 18.3721732991100950   T   T   T
  8.7822662223369221 32.5772206950775285 16.7391095866698940   T   T   T
  6.5866996667526907 29.1439561523754094 17.1833029164536271   T   T   T
  7.6844829445448077 33.4922446060355981 17.7276574872670309   T   T   T
  7.6844829445448051 19.8140681661670293 17.2834641574832943   T   T   T
  7.6844829445448060 24.7956676987152136 16.6389483456402303   T   T   T
  8.7822662223369221 20.7290920771250988 18.2720120580804277   T   T   T
  6.5866996667526898 24.1623566198272250 17.8278187282966947   T   T   T
  5.4889163889605763 41.8866268644502071 10.0000000000000000   F   F   F
  4.3911331111684619 46.2349153181103958 10.5443545708134003   F   F   F
  6.5866996667526925 48.0188665020634602 10.3135482327885164   F   F   F
  5.4889163889605763 35.2557139731529574 10.8579028036019203   F   F   F
  5.4889163889605772 50.5832037717705916 11.0887091416268007   F   F   F
  5.4889163889605763 43.9522908804733419 11.9466119452287174   F   F   F
  4.3911331111684611 39.6040024268131532 11.4022573744153171   F   F   F
  6.5866996667526916 37.8200512428600888 11.6330637124402010   F   F   F
  3.2933498333763476 44.7769475598478763 11.8399184493492911   F   F   F
  4.3911331111684619 48.8435231814379875 10.2068547369090901   F   F   F
  6.5866996667526916 45.4102586387358684 10.6510480666928267   F   F   F
  3.2933498333763471 49.7585470923960571 11.1954026375062270   F   F   F
  7.6844829445448068 36.0803706525274919 10.7512093077224939   F   F   F
  7.6844829445448060 41.0619701850756726 10.1066934958794263   F   F   F
  4.3911331111684619 36.9953945634855614 11.7397572083196273   F   F   F
  6.5866996667526916 40.4286591061876877 11.2955638785358907   F   F   F
  7.6844829445448068 42.1683396965202846 12.1774182832536013   F   F   F
  6.5866996667526925 46.5166281501804804 12.7217728540670016   F   F   F
  4.3911331111684619 48.3005793341335448 12.4909665160421177   F   F   F
  7.6844829445448060 35.5374268052230420 13.0353210868555180   F   F   F
  3.2933498333763485 50.8649166038406690 13.2661274248804020   F   F   F
  3.2933498333763458 44.2340037125434264 14.1240302284823187   F   F   F
  6.5866996667526916 39.8857152588832307 13.5796756576689184   F   F   F
  4.3911331111684611 38.1017640749301663 13.8104819956938023   F   F   F
  5.4889163889605772 45.0586603919179538 14.0173367326028924   F   F   F
  6.5866996667526925 49.1252360135080721 12.3842730201626914   F   F   F
  4.3911331111684628 45.6919714708059459 12.8284663499464280   F   F   F
  5.4889163889605763 50.0402599244661346 13.3728209207598283   F   F   F
  5.4889163889605763 36.3620834845975693 12.9286275909760917   F   F   F
  5.4889163889605763 41.3436830171457501 12.2841117791330277   F   F   F
  6.5866996667526916 37.2771073955556389 13.9171754915732251   F   F   F
  4.3911331111684619 40.7103719382577651 13.4729821617894920   F   F   F
  5.4889163889605772 42.4500525285903620 14.3548365665072026   T   T   T
  4.3911331111684611 46.7983409822505507 14.8991911373205994   T   T   T
  6.5866996667526907 48.5822921662036151 14.6683847992957190   T   T   T
  5.4889163889605763 35.8191396372931194 15.2127393701091194   T   T   T
  5.4889163889605790 51.1466294359107465 15.4435457081340033   T   T   T
  5.4889163889605772 44.5157165446135039 16.3014485117359200   T   T   T
  4.3911331111684619 40.1674280909533081 15.7570939409225197   T   T   T
  6.5866996667526916 38.3834769070002437 15.9879002789474001   T   T   T
  3.2933498333763485 45.3403732239880384 16.1947550158564937   T   T   T
  4.3911331111684628 49.4069488455781425 14.5616913034162927   T   T   T
  6.5866996667526916 45.9736843028760234 15.0058846332000293   T   T   T
  3.2933498333763462 50.3219727565362120 15.5502392040134296   T   T   T
  7.6844829445448060 36.6437963166676468 15.1060458742296930   T   T   T
  7.6844829445448077 41.6253958492158276 14.4615300623866290   T   T   T
  4.3911331111684619 37.5588202276257164 16.0945937748268264   T   T   T
  6.5866996667526925 40.9920847703278426 15.6504004450430934   T   T   T
  7.6844829445448077 42.7317653606604395 16.5322548497608004   T   T   T
  6.5866996667526916 47.0800538143206353 17.0766094205742007   T   T   T
  4.3911331111684611 48.8640049982736997 16.8458030825493204   T   T   T
  7.6844829445448077 36.1008524693631969 17.3901576533627207   T   T   T
  5.4889163889605763 34.3169012854101325 17.6209639913876011   T   T   T
  3.2933498333763449 44.7974293766835814 18.4788667949895213   T   T   T
  6.5866996667526925 40.4491409230233927 17.9345122241761210   T   T   T
  4.3911331111684611 38.6651897390703283 18.1653185622010014   T   T   T
  5.4889163889605772 45.6220860560581087 18.3721732991100950   T   T   T
  6.5866996667526916 49.6886616776482271 16.7391095866698940   T   T   T
  4.3911331111684611 46.2553971349461079 17.1833029164536271   T   T   T
  5.4889163889605781 50.6036855886062966 17.7276574872670309   T   T   T
  5.4889163889605754 36.9255091487377243 17.2834641574832943   T   T   T
  5.4889163889605772 41.9071086812859050 16.6389483456402303   T   T   T
  6.5866996667526916 37.8405330596957938 18.2720120580804277   T   T   T
  4.3911331111684602 41.2737976023979201 17.8278187282966947   T   T   T
  3.2933498333763467 58.9980678470208986 10.0000000000000000   F   F   F
  2.1955665555842323 63.3463563006810872 10.5443545708134003   F   F   F
  4.3911331111684628 65.1303074846341588 10.3135482327885164   F   F   F
  3.2933498333763467 52.3671549557236489 10.8579028036019203   F   F   F
  3.2933498333763476 67.6946447543412830 11.0887091416268007   F   F   F
  3.2933498333763467 61.0637318630440404 11.9466119452287174   F   F   F
  2.1955665555842314 56.7154434093838447 11.4022573744153171   F   F   F
  4.3911331111684619 54.9314922254307803 11.6330637124402010   F   F   F
  1.0977832777921182 61.8883885424185678 11.8399184493492911   F   F   F
  2.1955665555842327 65.9549641640086861 10.2068547369090901   F   F   F
  4.3911331111684628 62.5216996213065599 10.6510480666928267   F   F   F
  1.0977832777921175 66.8699880749667415 11.1954026375062270   F   F   F
  5.4889163889605772 53.1918116350981833 10.7512093077224939   F   F   F
  5.4889163889605772 58.1734111676463641 10.1066934958794263   F   F   F
  2.1955665555842323 54.1068355460562458 11.7397572083196273   F   F   F
  4.3911331111684611 57.5401000887583791 11.2955638785358907   F   F   F
  5.4889163889605772 59.2797806790909760 12.1774182832536013   F   F   F
  4.3911331111684628 63.6280691327511647 12.7217728540670016   F   F   F
  2.1955665555842319 65.4120203167042291 12.4909665160421177   F   F   F
  5.4889163889605772 52.6488677877937334 13.0353210868555180   F   F   F
  1.0977832777921186 67.9763575864113534 13.2661274248804020   F   F   F
  1.0977832777921164 61.3454446951141179 14.1240302284823187   F   F   F
  4.3911331111684611 56.9971562414539221 13.5796756576689184   F   F   F
  2.1955665555842319 55.2132050575008577 13.8104819956938023   F   F   F
  3.2933498333763471 62.1701013744886453 14.0173367326028924   F   F   F
  4.3911331111684628 66.2366769960787565 12.3842730201626914   F   F   F
  2.1955665555842332 62.8034124533766374 12.8284663499464280   F   F   F
  3.2933498333763467 67.1517009070368260 13.3728209207598283   F   F   F
  3.2933498333763467 53.4735244671682608 12.9286275909760917   F   F   F
  3.2933498333763467 58.4551239997164416 12.2841117791330277   F   F   F
  4.3911331111684619 54.3885483781263304 13.9171754915732251   F   F   F
  2.1955665555842323 57.8218129208284566 13.4729821617894920   F   F   F
  3.2933498333763471 59.5614935111610535 14.3548365665072026   T   T   T
  2.1955665555842310 63.9097819648212493 14.8991911373205994   T   T   T
  4.3911331111684611 65.6937331487743137 14.6683847992957190   T   T   T
  3.2933498333763467 52.9305806198638109 15.2127393701091194   T   T   T
  3.2933498333763489 68.2580704184814380 15.4435457081340033   T   T   T
  3.2933498333763471 61.6271575271841954 16.3014485117359200   T   T   T
  2.1955665555842323 57.2788690735239996 15.7570939409225197   T   T   T
  4.3911331111684619 55.4949178895709352 15.9879002789474001   T   T   T
  1.0977832777921188 62.4518142065587227 16.1947550158564937   T   T   T
  2.1955665555842332 66.5183898281488410 14.5616913034162927   T   T   T
  4.3911331111684628 63.0851252854467148 15.0058846332000293   T   T   T
  1.0977832777921166 67.4334137391068964 15.5502392040134296   T   T   T
  5.4889163889605772 53.7552372992383383 15.1060458742296930   T   T   T
  5.4889163889605781 58.7368368317865190 14.4615300623866290   T   T   T
  2.1955665555842323 54.6702612101964078 16.0945937748268264   T   T   T
  4.3911331111684628 58.1035257528985341 15.6504004450430934   T   T   T
  5.4889163889605790 59.8432063432311310 16.5322548497608004   T   T   T
  4.3911331111684628 64.1914947968913197 17.0766094205742007   T   T   T
  2.1955665555842319 65.9754459808443841 16.8458030825493204   T   T   T
  5.4889163889605781 53.2122934519338884 17.3901576533627207   T   T   T
  3.2933498333763467 51.4283422679808240 17.6209639913876011   T   T   T
  1.0977832777921155 61.9088703592542728 18.4788667949895213   T   T   T
  4.3911331111684628 57.5605819055940771 17.9345122241761210   T   T   T
  2.1955665555842319 55.7766307216410127 18.1653185622010014   T   T   T
  3.2933498333763471 62.7335270386288073 18.3721732991100950   T   T   T
  4.3911331111684628 66.8001026602189114 16.7391095866698940   T   T   T
  2.1955665555842310 63.3668381175167923 17.1833029164536271   T   T   T
  3.2933498333763485 67.7151265711769810 17.7276574872670309   T   T   T
  3.2933498333763458 54.0369501313084157 17.2834641574832943   T   T   T
  3.2933498333763471 59.0185496638565965 16.6389483456402303   T   T   T
  4.3911331111684628 54.9519740422664853 18.2720120580804277   T   T   T
  2.1955665555842305 58.3852385849686115 17.8278187282966947   T   T   T
 14.2711826112974958  7.6637448993088144 10.0000000000000000   F   F   F
 13.1733993335053796 12.0120333529690075 10.5443545708134003   F   F   F
 15.3689658890896119 13.7959845369220719 10.3135482327885164   F   F   F
 14.2711826112974940  1.0328320080115707 10.8579028036019203   F   F   F
 14.2711826112974958 16.3603218066292015 11.0887091416268007   F   F   F
 14.2711826112974940  9.7294089153319554 11.9466119452287174   F   F   F
 13.1733993335053796  5.3811204616717641 11.4022573744153171   F   F   F
 15.3689658890896101  3.5971692777186983 11.6330637124402010   F   F   F
 12.0756160557132670 10.5540655947064863 11.8399184493492911   F   F   F
 13.1733993335053814 14.6206412162965993 10.2068547369090901   F   F   F
 15.3689658890896101 11.1873766735944766 10.6510480666928267   F   F   F
 12.0756160557132652 15.5356651272546653 11.1954026375062270   F   F   F
 16.4667491668817263  1.8574886873860998 10.7512093077224939   F   F   F
 16.4667491668817263  6.8390882199342817 10.1066934958794263   F   F   F
 13.1733993335053796  2.7725125983441679 11.7397572083196273   F   F   F
 15.3689658890896101  6.2057771410462950 11.2955638785358907   F   F   F
 16.4667491668817263  7.9454577313788928 12.1774182832536013   F   F   F
 15.3689658890896119 12.2937461850390868 12.7217728540670016   F   F   F
 13.1733993335053796 14.0776973689921512 12.4909665160421177   F   F   F
 16.4667491668817263  1.3145448400816491 13.0353210868555180   F   F   F
 12.0756160557132670 16.6420346386992790 13.2661274248804020   F   F   F
 12.0756160557132652 10.0111217474020346 14.1240302284823187   F   F   F
 15.3689658890896101  5.6628332937418424 13.5796756576689184   F   F   F
 13.1733993335053796  3.8788821097887776 13.8104819956938023   F   F   F
 14.2711826112974958 10.8357784267765656 14.0173367326028924   F   F   F
 15.3689658890896119 14.9023540483666785 12.3842730201626914   F   F   F
 13.1733993335053814 11.4690895056645576 12.8284663499464280   F   F   F
 14.2711826112974958 15.8173779593247428 13.3728209207598283   F   F   F
 14.2711826112974958  2.1392015194561784 12.9286275909760917   F   F   F
 14.2711826112974958  7.1208010520043610 12.2841117791330277   F   F   F
 15.3689658890896101  3.0542254304142467 13.9171754915732251   F   F   F
 13.1733993335053796  6.4874899731163733 13.4729821617894920   F   F   F
 14.2711826112974958  8.2271705634489720 14.3548365665072026   T   T   T
 13.1733993335053796 12.5754590171091643 14.8991911373205994   T   T   T
 15.3689658890896084 14.3594102010622287 14.6683847992957190   T   T   T
 14.2711826112974958  1.5962576721517279 15.2127393701091194   T   T   T
 14.2711826112974975 16.9237474707693565 15.4435457081340033   T   T   T
 14.2711826112974958 10.2928345794721139 16.3014485117359200   T   T   T
 13.1733993335053814  5.9445461258119208 15.7570939409225197   T   T   T
 15.3689658890896101  4.1605949418588555 15.9879002789474001   T   T   T
 12.0756160557132670 11.1174912588466448 16.1947550158564937   T   T   T
 13.1733993335053814 15.1840668804367560 14.5616913034162927   T   T   T
 15.3689658890896101 11.7508023377346351 15.0058846332000293   T   T   T
 12.0756160557132652 16.0990907913948220 15.5502392040134296   T   T   T
 16.4667491668817263  2.4209143515262568 15.1060458742296930   T   T   T
 16.4667491668817263  7.4025138840744402 14.4615300623866290   T   T   T
 13.1733993335053796  3.3359382624843250 16.0945937748268264   T   T   T
 15.3689658890896119  6.7692028051864508 15.6504004450430934   T   T   T
 16.4667491668817263  8.5088833955190495 16.5322548497608004   T   T   T
 15.3689658890896101 12.8571718491792435 17.0766094205742007   T   T   T
 13.1733993335053796 14.6411230331323079 16.8458030825493204   T   T   T
 16.4667491668817263  1.8779705042218062 17.3901576533627207   T   T   T
 14.2711826112974958  0.0940193202687433 17.6209639913876011   T   T   T
 12.0756160557132635 10.5745474115421914 18.4788667949895213   T   T   T
 15.3689658890896119  6.2262589578819991 17.9345122241761210   T   T   T
 13.1733993335053796  4.4423077739289347 18.1653185622010014   T   T   T
 14.2711826112974958 11.3992040909167223 18.3721732991100950   T   T   T
 15.3689658890896101 15.4657797125068335 16.7391095866698940   T   T   T
 13.1733993335053796 12.0325151698047144 17.1833029164536271   T   T   T
 14.2711826112974958 16.3808036234649030 17.7276574872670309   T   T   T
 14.2711826112974940  2.7026271835963351 17.2834641574832943   T   T   T
 14.2711826112974958  7.6842267161445177 16.6389483456402303   T   T   T
 15.3689658890896101  3.6176510945544034 18.2720120580804277   T   T   T
 13.1733993335053778  7.0509156372565291 17.8278187282966947   T   T   T
 12.0756160557132670 24.7751858818795085 10.0000000000000000   F   F   F
 10.9778327779211509 29.1234743355397043 10.5443545708134003   F   F   F
 13.1733993335053832 30.9074255194927687 10.3135482327885164   F   F   F
 12.0756160557132652 18.1442729905822659 10.8579028036019203   F   F   F
 12.0756160557132670 33.4717627891999001 11.0887091416268007   F   F   F
 12.0756160557132652 26.8408498979026504 11.9466119452287174   F   F   F
 10.9778327779211509 22.4925614442424582 11.4022573744153171   F   F   F
 13.1733993335053814 20.7086102602893938 11.6330637124402010   F   F   F
  9.8800495001290383 27.6655065772771813 11.8399184493492911   F   F   F
 10.9778327779211526 31.7320821988672961 10.2068547369090901   F   F   F
 13.1733993335053814 28.2988176561651699 10.6510480666928267   F   F   F
  9.8800495001290365 32.6471061098253585 11.1954026375062270   F   F   F
 14.2711826112974975 18.9689296699567933 10.7512093077224939   F   F   F
 14.2711826112974958 23.9505292025049776 10.1066934958794263   F   F   F
 10.9778327779211509 19.8839535809148629 11.7397572083196273   F   F   F
 13.1733993335053814 23.3172181236169891 11.2955638785358907   F   F   F
 14.2711826112974975 25.0568987139495860 12.1774182832536013   F   F   F
 13.1733993335053832 29.4051871676097818 12.7217728540670016   F   F   F
 10.9778327779211509 31.1891383515628462 12.4909665160421177   F   F   F
 14.2711826112974958 18.4259858226523434 13.0353210868555180   F   F   F
  9.8800495001290383 33.7534756212699705 13.2661274248804020   F   F   F
  9.8800495001290365 27.1225627299727279 14.1240302284823187   F   F   F
 13.1733993335053814 22.7742742763125392 13.5796756576689184   F   F   F
 10.9778327779211509 20.9903230923594712 13.8104819956938023   F   F   F
 12.0756160557132670 27.9472194093472623 14.0173367326028924   F   F   F
 13.1733993335053832 32.0137950309373736 12.3842730201626914   F   F   F
 10.9778327779211526 28.5805304882352544 12.8284663499464280   F   F   F
 12.0756160557132670 32.9288189418954360 13.3728209207598283   F   F   F
 12.0756160557132670 19.2506425020268743 12.9286275909760917   F   F   F
 12.0756160557132670 24.2322420345750551 12.2841117791330277   F   F   F
 13.1733993335053814 20.1656664129849403 13.9171754915732251   F   F   F
 10.9778327779211509 23.5989309556870666 13.4729821617894920   F   F   F
 12.0756160557132670 25.3386115460196670 14.3548365665072026   T   T   T
 10.9778327779211509 29.6868999996798593 14.8991911373205994   T   T   T
 13.1733993335053796 31.4708511836329237 14.6683847992957190   T   T   T
 12.0756160557132670 18.7076986547224244 15.2127393701091194   T   T   T
 12.0756160557132688 34.0351884533400550 15.4435457081340033   T   T   T
 12.0756160557132670 27.4042755620428089 16.3014485117359200   T   T   T
 10.9778327779211526 23.0559871083826167 15.7570939409225197   T   T   T
 13.1733993335053814 21.2720359244295523 15.9879002789474001   T   T   T
  9.8800495001290383 28.2289322414173398 16.1947550158564937   T   T   T
 10.9778327779211526 32.2955078630074510 14.5616913034162927   T   T   T
 13.1733993335053814 28.8622433203053319 15.0058846332000293   T   T   T
  9.8800495001290365 33.2105317739655135 15.5502392040134296   T   T   T
 14.2711826112974958 19.5323553340969518 15.1060458742296930   T   T   T
 14.2711826112974975 24.5139548666451361 14.4615300623866290   T   T   T
 10.9778327779211509 20.4473792450550214 16.0945937748268264   T   T   T
 13.1733993335053832 23.8806437877571440 15.6504004450430934   T   T   T
 14.2711826112974975 25.6203243780897445 16.5322548497608004   T   T   T
 13.1733993335053814 29.9686128317499367 17.0766094205742007   T   T   T
 10.9778327779211509 31.7525640157030011 16.8458030825493204   T   T   T
 14.2711826112974975 18.9894114867925019 17.3901576533627207   T   T   T
 12.0756160557132670 17.2054603028394375 17.6209639913876011   T   T   T
  9.8800495001290347 27.6859883941128864 18.4788667949895213   T   T   T
 13.1733993335053832 23.3376999404526941 17.9345122241761210   T   T   T
 10.9778327779211509 21.5537487564996297 18.1653185622010014   T   T   T
 12.0756160557132670 28.5106450734874173 18.3721732991100950   T   T   T
 13.1733993335053814 32.5772206950775285 16.7391095866698940   T   T   T
 10.9778327779211509 29.1439561523754094 17.1833029164536271   T   T   T
 12.0756160557132670 33.4922446060355981 17.7276574872670309   T   T   T
 12.0756160557132652 19.8140681661670293 17.2834641574832943   T   T   T
 12.0756160557132670 24.7956676987152136 16.6389483456402303   T   T   T
 13.1733993335053814 20.7290920771250988 18.2720120580804277   T   T   T
 10.9778327779211491 24.1623566198272250 17.8278187282966947   T   T   T
  9.8800495001290365 41.8866268644502071 10.0000000000000000   F   F   F
  8.7822662223369203 46.2349153181103958 10.5443545708134003   F   F   F
 10.9778327779211509 48.0188665020634602 10.3135482327885164   F   F   F
  9.8800495001290347 35.2557139731529574 10.8579028036019203   F   F   F
  9.8800495001290365 50.5832037717705916 11.0887091416268007   F   F   F
  9.8800495001290365 43.9522908804733419 11.9466119452287174   F   F   F
  8.7822662223369203 39.6040024268131532 11.4022573744153171   F   F   F
 10.9778327779211509 37.8200512428600888 11.6330637124402010   F   F   F
  7.6844829445448068 44.7769475598478763 11.8399184493492911   F   F   F
  8.7822662223369221 48.8435231814379875 10.2068547369090901   F   F   F
 10.9778327779211509 45.4102586387358684 10.6510480666928267   F   F   F
  7.6844829445448060 49.7585470923960571 11.1954026375062270   F   F   F
 12.0756160557132652 36.0803706525274919 10.7512093077224939   F   F   F
 12.0756160557132652 41.0619701850756726 10.1066934958794263   F   F   F
  8.7822662223369203 36.9953945634855614 11.7397572083196273   F   F   F
 10.9778327779211509 40.4286591061876877 11.2955638785358907   F   F   F
 12.0756160557132652 42.1683396965202846 12.1774182832536013   F   F   F
 10.9778327779211509 46.5166281501804804 12.7217728540670016   F   F   F
  8.7822662223369203 48.3005793341335448 12.4909665160421177   F   F   F
 12.0756160557132652 35.5374268052230420 13.0353210868555180   F   F   F
  7.6844829445448077 50.8649166038406690 13.2661274248804020   F   F   F
  7.6844829445448051 44.2340037125434264 14.1240302284823187   F   F   F
 10.9778327779211509 39.8857152588832307 13.5796756576689184   F   F   F
  8.7822662223369203 38.1017640749301663 13.8104819956938023   F   F   F
  9.8800495001290365 45.0586603919179538 14.0173367326028924   F   F   F
 10.9778327779211509 49.1252360135080721 12.3842730201626914   F   F   F
  8.7822662223369221 45.6919714708059459 12.8284663499464280   F   F   F
  9.8800495001290365 50.0402599244661346 13.3728209207598283   F   F   F
  9.8800495001290365 36.3620834845975693 12.9286275909760917   F   F   F
  9.8800495001290365 41.3436830171457501 12.2841117791330277   F   F   F
 10.9778327779211509 37.2771073955556389 13.9171754915732251   F   F   F
  8.7822662223369203 40.7103719382577651 13.4729821617894920   F   F   F
  9.8800495001290365 42.4500525285903620 14.3548365665072026   T   T   T
  8.7822662223369203 46.7983409822505507 14.8991911373205994   T   T   T
 10.9778327779211509 48.5822921662036151 14.6683847992957190   T   T   T
  9.8800495001290365 35.8191396372931194 15.2127393701091194   T   T   T
  9.8800495001290383 51.1466294359107465 15.4435457081340033   T   T   T
  9.8800495001290365 44.5157165446135039 16.3014485117359200   T   T   T
  8.7822662223369221 40.1674280909533081 15.7570939409225197   T   T   T
 10.9778327779211509 38.3834769070002437 15.9879002789474001   T   T   T
  7.6844829445448077 45.3403732239880384 16.1947550158564937   T   T   T
  8.7822662223369221 49.4069488455781425 14.5616913034162927   T   T   T
 10.9778327779211509 45.9736843028760234 15.0058846332000293   T   T   T
  7.6844829445448060 50.3219727565362120 15.5502392040134296   T   T   T
 12.0756160557132652 36.6437963166676468 15.1060458742296930   T   T   T
 12.0756160557132670 41.6253958492158276 14.4615300623866290   T   T   T
  8.7822662223369203 37.5588202276257164 16.0945937748268264   T   T   T
 10.9778327779211509 40.9920847703278426 15.6504004450430934   T   T   T
 12.0756160557132670 42.7317653606604395 16.5322548497608004   T   T   T
 10.9778327779211509 47.0800538143206353 17.0766094205742007   T   T   T
  8.7822662223369203 48.8640049982736997 16.8458030825493204   T   T   T
 12.0756160557132670 36.1008524693631969 17.3901576533627207   T   T   T
  9.8800495001290365 34.3169012854101325 17.6209639913876011   T   T   T
  7.6844829445448042 44.7974293766835814 18.4788667949895213   T   T   T
 10.9778327779211509 40.4491409230233927 17.9345122241761210   T   T   T
  8.7822662223369203 38.6651897390703283 18.1653185622010014   T   T   T
  9.8800495001290365 45.6220860560581087 18.3721732991100950   T   T   T
 10.9778327779211509 49.6886616776482271 16.7391095866698940   T   T   T
  8.7822662223369203 46.2553971349461079 17.1833029164536271   T   T   T
  9.8800495001290365 50.6036855886062966 17.7276574872670309   T   T   T
  9.8800495001290347 36.9255091487377243 17.2834641574832943   T   T   T
  9.8800495001290365 41.9071086812859050 16.6389483456402303   T   T   T
 10.9778327779211509 37.8405330596957938 18.2720120580804277   T   T   T
  8.7822662223369186 41.2737976023979201 17.8278187282966947   T   T   T
  7.6844829445448060 58.9980678470208986 10.0000000000000000   F   F   F
  6.5866996667526916 63.3463563006810872 10.5443545708134003   F   F   F
  8.7822662223369221 65.1303074846341588 10.3135482327885164   F   F   F
  7.6844829445448060 52.3671549557236489 10.8579028036019203   F   F   F
  7.6844829445448068 67.6946447543412830 11.0887091416268007   F   F   F
  7.6844829445448060 61.0637318630440404 11.9466119452287174   F   F   F
  6.5866996667526907 56.7154434093838447 11.4022573744153171   F   F   F
  8.7822662223369221 54.9314922254307803 11.6330637124402010   F   F   F
  5.4889163889605772 61.8883885424185678 11.8399184493492911   F   F   F
  6.5866996667526916 65.9549641640086861 10.2068547369090901   F   F   F
  8.7822662223369221 62.5216996213065599 10.6510480666928267   F   F   F
  5.4889163889605772 66.8699880749667415 11.1954026375062270   F   F   F
  9.8800495001290365 53.1918116350981833 10.7512093077224939   F   F   F
  9.8800495001290365 58.1734111676463641 10.1066934958794263   F   F   F
  6.5866996667526916 54.1068355460562458 11.7397572083196273   F   F   F
  8.7822662223369203 57.5401000887583791 11.2955638785358907   F   F   F
  9.8800495001290365 59.2797806790909760 12.1774182832536013   F   F   F
  8.7822662223369221 63.6280691327511647 12.7217728540670016   F   F   F
  6.5866996667526916 65.4120203167042291 12.4909665160421177   F   F   F
  9.8800495001290365 52.6488677877937334 13.0353210868555180   F   F   F
  5.4889163889605781 67.9763575864113534 13.2661274248804020   F   F   F
  5.4889163889605754 61.3454446951141179 14.1240302284823187   F   F   F
  8.7822662223369203 56.9971562414539221 13.5796756576689184   F   F   F
  6.5866996667526907 55.2132050575008577 13.8104819956938023   F   F   F
  7.6844829445448060 62.1701013744886453 14.0173367326028924   F   F   F
  8.7822662223369221 66.2366769960787565 12.3842730201626914   F   F   F
  6.5866996667526925 62.8034124533766374 12.8284663499464280   F   F   F
  7.6844829445448060 67.1517009070368260 13.3728209207598283   F   F   F
  7.6844829445448060 53.4735244671682608 12.9286275909760917   F   F   F
  7.6844829445448060 58.4551239997164416 12.2841117791330277   F   F   F
  8.7822662223369221 54.3885483781263304 13.9171754915732251   F   F   F
  6.5866996667526916 57.8218129208284566 13.4729821617894920   F   F   F
  7.6844829445448060 59.5614935111610535 14.3548365665072026   T   T   T
  6.5866996667526907 63.9097819648212493 14.8991911373205994   T   T   T
  8.7822662223369203 65.6937331487743137 14.6683847992957190   T   T   T
  7.6844829445448060 52.9305806198638109 15.2127393701091194   T   T   T
  7.6844829445448077 68.2580704184814380 15.4435457081340033   T   T   T
  7.6844829445448060 61.6271575271841954 16.3014485117359200   T   T   T
  6.5866996667526916 57.2788690735239996 15.7570939409225197   T   T   T
  8.7822662223369221 55.4949178895709352 15.9879002789474001   T   T   T
  5.4889163889605781 62.4518142065587227 16.1947550158564937   T   T   T
  6.5866996667526925 66.5183898281488410 14.5616913034162927   T   T   T
  8.7822662223369221 63.0851252854467148 15.0058846332000293   T   T   T
  5.4889163889605754 67.4334137391068964 15.5502392040134296   T   T   T
  9.8800495001290365 53.7552372992383383 15.1060458742296930   T   T   T
  9.8800495001290365 58.7368368317865190 14.4615300623866290   T   T   T
  6.5866996667526916 54.6702612101964078 16.0945937748268264   T   T   T
  8.7822662223369221 58.1035257528985341 15.6504004450430934   T   T   T
  9.8800495001290383 59.8432063432311310 16.5322548497608004   T   T   T
  8.7822662223369221 64.1914947968913197 17.0766094205742007   T   T   T
  6.5866996667526907 65.9754459808443841 16.8458030825493204   T   T   T
  9.8800495001290365 53.2122934519338884 17.3901576533627207   T   T   T
  7.6844829445448060 51.4283422679808240 17.6209639913876011   T   T   T
  5.4889163889605745 61.9088703592542728 18.4788667949895213   T   T   T
  8.7822662223369221 57.5605819055940771 17.9345122241761210   T   T   T
  6.5866996667526907 55.7766307216410127 18.1653185622010014   T   T   T
  7.6844829445448060 62.7335270386288073 18.3721732991100950   T   T   T
  8.7822662223369221 66.8001026602189114 16.7391095866698940   T   T   T
  6.5866996667526907 63.3668381175167923 17.1833029164536271   T   T   T
  7.6844829445448077 67.7151265711769810 17.7276574872670309   T   T   T
  7.6844829445448051 54.0369501313084157 17.2834641574832943   T   T   T
  7.6844829445448060 59.0185496638565965 16.6389483456402303   T   T   T
  8.7822662223369221 54.9519740422664853 18.2720120580804277   T   T   T
  6.5866996667526898 58.3852385849686115 17.8278187282966947   T   T   T
