Mo B  Mo B  Mo B  Mo B  Mo B  Mo B  Mo B  Mo B  Mo B  Mo B  Mo B  Mo B  Mo B  Mo B  Mo B  Mo B  Mo B  Mo B  Mo B  Mo B  Mo B  Mo B  Mo B  Mo B  Mo B  Mo B  Mo B  Mo B  Mo B  Mo B  Mo B  Mo Ni Mo B  Mo B  Mo B  Mo B  Mo B 
 1.0000000000000000
    13.1733993335053796    0.0000000000000000    0.0000000000000000
    -6.5866996667526889   51.3343229477120815    0.0000000000000000
     0.0000000000000000    0.0000000000000000   24.4788667949895213
 Mo  B   Mo  B   Mo  B   Mo  B   Mo  B   Mo  B   Mo  B   Mo  B   Mo  B   Mo  B   Mo  B   Mo  B   Mo  B   Mo  B   Mo  B   Mo  B   Mo  B   Mo  B   Mo  B   Mo  B   Mo  B   Mo  B   Mo  B   Mo  B   Mo  B   Mo  B   Mo  B   Mo  B   Mo  B   Mo  B   Mo  B   Mo  Ni  Mo  B   Mo  B   Mo  B   Mo  B   Mo  B  
   8   8   8   8   8   8   8   8   8   8   8   8   8   8   8   8   8   8   8   8   8   8   8   8   8   8   8   8   8   8   8   8   8   8   8   8   8   8   8   8   8   8   8   8   8   8   8   8   8   8   8   8   8   8   8   8   8   8   8   8   8   8   5   1   2   8   8   8   8   8   8   8   8   8
Selective dynamics
Cartesian
  1.0977832777921155  7.6637448993088144  8.0000000000000000   F   F   F
  0.0000000000000008 12.0120333529690075  8.5443545708134003   F   F   F
  2.1955665555842314 13.7959845369220719  8.3135482327885182   F   F   F
  1.0977832777921150  1.0328320080115707  8.8579028036019203   F   F   F
  1.0977832777921159 16.3603218066292015  9.0887091416268007   F   F   F
  1.0977832777921153  9.7294089153319554  9.9466119452287192   F   F   F
  0.0000000000000002  5.3811204616717641  9.4022573744153188   F   F   F
  2.1955665555842305  3.5971692777186983  9.6330637124402010   F   F   F
 -1.0977832777921133 10.5540655947064863  9.8399184493492928   F   F   F
  0.0000000000000012 14.6206412162965993  8.2068547369090936   F   F   F
  2.1955665555842310 11.1873766735944766  8.6510480666928267   F   F   F
 -1.0977832777921139 15.5356651272546653  9.1954026375062270   F   F   F
  3.2933498333763458  1.8574886873860998  8.7512093077224939   F   F   F
  3.2933498333763453  6.8390882199342817  8.1066934958794281   F   F   F
  0.0000000000000008  2.7725125983441679  9.7397572083196273   F   F   F
  2.1955665555842301  6.2057771410462950  9.2955638785358925   F   F   F
  3.2933498333763458  7.9454577313788928 10.1774182832536013   F   F   F
  2.1955665555842314 12.2937461850390868 10.7217728540670016   F   F   F
  0.0000000000000005 14.0776973689921512 10.4909665160421195   F   F   F
  3.2933498333763453  1.3145448400816491 11.0353210868555198   F   F   F
 -1.0977832777921128 16.6420346386992790 11.2661274248804020   F   F   F
 -1.0977832777921150 10.0111217474020346 12.1240302284823205   F   F   F
  2.1955665555842301  5.6628332937418424 11.5796756576689184   F   F   F
  0.0000000000000004  3.8788821097887776 11.8104819956938023   F   F   F
  1.0977832777921157 10.8357784267765656 12.0173367326028941   F   F   F
  2.1955665555842314 14.9023540483666785 10.3842730201626949   F   F   F
  0.0000000000000016 11.4690895056645576 10.8284663499464280   F   F   F
  1.0977832777921155 15.8173779593247428 11.3728209207598283   F   F   F
  1.0977832777921155  2.1392015194561784 10.9286275909760953   F   F   F
  1.0977832777921155  7.1208010520043610 10.2841117791330294   F   F   F
  2.1955665555842305  3.0542254304142467 11.9171754915732286   F   F   F
  0.0000000000000008  6.4874899731163733 11.4729821617894938   F   F   F
  1.0977832777921157  8.2271705634489720 12.3548365665072026   T   T   T
 -0.0000000000000003 12.5754590171091643 12.8991911373206012   T   T   T
  2.1955665555842296 14.3594102010622287 12.6683847992957208   T   T   T
  1.0977832777921155  1.5962576721517279 13.2127393701091211   T   T   T
  1.0977832777921175 16.9237474707693565 13.4435457081340033   T   T   T
  1.0977832777921157 10.2928345794721139 14.3014485117359200   T   T   T
  0.0000000000000011  5.9445461258119208 13.7570939409225215   T   T   T
  2.1955665555842305  4.1605949418588555 13.9879002789474018   T   T   T
 -1.0977832777921126 11.1174912588466448 14.1947550158564955   T   T   T
  0.0000000000000017 15.1840668804367560 12.5616913034162945   T   T   T
  2.1955665555842310 11.7508023377346351 13.0058846332000293   T   T   T
 -1.0977832777921148 16.0990907913948220 13.5502392040134296   T   T   T
  3.2933498333763453  2.4209143515262568 13.1060458742296948   T   T   T
  3.2933498333763467  7.4025138840744402 12.4615300623866290   T   T   T
  0.0000000000000007  3.3359382624843250 14.0945937748268282   T   T   T
  2.1955665555842314  6.7692028051864508 13.6504004450430934   T   T   T
  3.2933498333763471  8.5088833955190495 14.5322548497608022   T   T   T
  2.1955665555842310 12.8571718491792435 15.0766094205742025   T   T   T
  0.0000000000000003 14.6411230331323079 14.8458030825493221   T   T   T
  3.2933498333763467  1.8779705042218062 15.3901576533627225   T   T   T
  1.0977832777921155  0.0940193202687433 15.6209639913876028   T   T   T
 -1.0977832777921159 10.5745474115421914 16.4788667949895213   T   T   T
  2.1955665555842314  6.2262589578819991 15.9345122241761228   T   T   T
  0.0000000000000003  4.4423077739289347 16.1653185622010049   T   T   T
  1.0977832777921157 11.3992040909167223 16.3721732991100950   T   T   T
  2.1955665555842310 15.4657797125068335 14.7391095866698958   T   T   T
 -0.0000000000000003 12.0325151698047144 15.1833029164536288   T   T   T
  1.0977832777921168 16.3808036234649030 15.7276574872670309   T   T   T
  1.0977832777921144  2.7026271835963351 15.2834641574832961   T   T   T
  1.0977832777921157  7.6842267161445177 14.6389483456402303   T   T   T
  2.1955665555842310  3.6176510945544034 16.2720120580804313   T   T   T
 -0.0000000000000011  7.0509156372565291 15.8278187282966947   T   T   T
 -1.0977832777921142 24.7751858818795085  8.0000000000000000   F   F   F
 -2.1955665555842288 29.1234743355397043  8.5443545708134003   F   F   F
  0.0000000000000018 30.9074255194927687  8.3135482327885182   F   F   F
 -1.0977832777921146 18.1442729905822659  8.8579028036019203   F   F   F
 -1.0977832777921137 33.4717627891999001  9.0887091416268007   F   F   F
 -1.0977832777921144 26.8408498979026504  9.9466119452287192   F   F   F
 -2.1955665555842296 22.4925614442424582  9.4022573744153188   F   F   F
  0.0000000000000009 20.7086102602893938  9.6330637124402010   F   F   F
 -3.2933498333763431 27.6655065772771813  9.8399184493492928   F   F   F
 -2.1955665555842283 31.7320821988672961  8.2068547369090936   F   F   F
  0.0000000000000013 28.2988176561651699  8.6510480666928267   F   F   F
 -3.2933498333763436 32.6471061098253585  9.1954026375062270   F   F   F
  1.0977832777921162 18.9689296699567933  8.7512093077224939   F   F   F
  1.0977832777921157 23.9505292025049776  8.1066934958794281   F   F   F
 -2.1955665555842288 19.8839535809148629  9.7397572083196273   F   F   F
  0.0000000000000004 23.3172181236169891  9.2955638785358925   F   F   F
  1.0977832777921162 25.0568987139495860 10.1774182832536013   F   F   F
  0.0000000000000018 29.4051871676097818 10.7217728540670016   F   F   F
 -2.1955665555842292 31.1891383515628462 10.4909665160421195   F   F   F
  1.0977832777921157 18.4259858226523434 11.0353210868555198   F   F   F
 -3.2933498333763422 33.7534756212699705 11.2661274248804020   F   F   F
 -3.2933498333763449 27.1225627299727279 12.1240302284823205   F   F   F
  0.0000000000000004 22.7742742763125392 11.5796756576689184   F   F   F
 -2.1955665555842292 20.9903230923594712 11.8104819956938023   F   F   F
 -1.0977832777921139 27.9472194093472623 12.0173367326028941   F   F   F
  0.0000000000000018 32.0137950309373736 10.3842730201626949   F   F   F
 -2.1955665555842279 28.5805304882352544 10.8284663499464280   F   F   F
 -1.0977832777921142 32.9288189418954360 11.3728209207598283   F   F   F
 -1.0977832777921142 19.2506425020268743 10.9286275909760953   F   F   F
 -1.0977832777921142 24.2322420345750551 10.2841117791330294   F   F   F
  0.0000000000000009 20.1656664129849403 11.9171754915732286   F   F   F
 -2.1955665555842288 23.5989309556870666 11.4729821617894938   F   F   F
 -1.0977832777921139 25.3386115460196670 12.3548365665072026   T   T   T
 -2.1955665555842301 29.6868999996798593 12.8991911373206012   T   T   T
  0.0000000000000000 31.4708511836329237 12.6683847992957208   T   T   T
 -1.0977832777921142 18.7076986547224244 13.2127393701091211   T   T   T
 -1.0977832777921122 34.0351884533400550 13.4435457081340033   T   T   T
 -1.0977832777921139 27.4042755620428089 14.3014485117359200   T   T   T
 -2.1955665555842288 23.0559871083826167 13.7570939409225215   T   T   T
  0.0000000000000009 21.2720359244295523 13.9879002789474018   T   T   T
 -3.2933498333763422 28.2289322414173398 14.1947550158564955   T   T   T
 -2.1955665555842279 32.2955078630074510 12.5616913034162945   T   T   T
  0.0000000000000013 28.8622433203053319 13.0058846332000293   T   T   T
 -3.2933498333763445 33.2105317739655135 13.5502392040134296   T   T   T
  1.0977832777921157 19.5323553340969518 13.1060458742296948   T   T   T
  1.0977832777921170 24.5139548666451361 12.4615300623866290   T   T   T
 -2.1955665555842288 20.4473792450550214 14.0945937748268282   T   T   T
  0.0000000000000018 23.8806437877571440 13.6504004450430934   T   T   T
  1.0977832777921175 25.6203243780897445 14.5322548497608022   T   T   T
  0.0000000000000013 29.9686128317499367 15.0766094205742025   T   T   T
 -2.1955665555842292 31.7525640157030011 14.8458030825493221   T   T   T
  1.0977832777921170 18.9894114867925019 15.3901576533627225   T   T   T
 -1.0977832777921142 17.2054603028394375 15.6209639913876028   T   T   T
 -3.2933498333763458 27.6859883941128864 16.4788667949895213   T   T   T
  0.0000000000000018 23.3376999404526941 15.9345122241761228   T   T   T
 -2.1955665555842292 21.5537487564996297 16.1653185622010049   T   T   T
 -1.0977832777921139 28.5106450734874173 16.3721732991100950   T   T   T
  0.0000000000000013 32.5772206950775285 14.7391095866698958   T   T   T
 -2.1955665555842301 29.1439561523754094 15.1833029164536288   T   T   T
 -1.0977832777921128 33.4922446060355981 15.7276574872670309   T   T   T
 -1.0977832777921153 19.8140681661670293 15.2834641574832961   T   T   T
 -1.0977832777921139 24.7956676987152136 14.6389483456402303   T   T   T
  0.0000000000000013 20.7290920771250988 16.2720120580804313   T   T   T
 -2.1955665555842305 24.1623566198272250 15.8278187282966947   T   T   T
 -3.2933498333763440 41.8866268644502071  8.0000000000000000   F   F   F
 -4.3911331111684584 46.2349153181103958  8.5443545708134003   F   F   F
 -2.1955665555842279 48.0188665020634602  8.3135482327885182   F   F   F
 -3.2933498333763440 35.2557139731529574  8.8579028036019203   F   F   F
 -3.2933498333763431 50.5832037717705916  9.0887091416268007   F   F   F
 -3.2933498333763440 43.9522908804733419  9.9466119452287192   F   F   F
 -4.3911331111684593 39.6040024268131532  9.4022573744153188   F   F   F
 -2.1955665555842288 37.8200512428600888  9.6330637124402010   F   F   F
 -5.4889163889605728 44.7769475598478763  9.8399184493492928   F   F   F
 -4.3911331111684584 48.8435231814379875  8.2068547369090936   F   F   F
 -2.1955665555842283 45.4102586387358684  8.6510480666928267   F   F   F
 -5.4889163889605737 49.7585470923960571  9.1954026375062270   F   F   F
 -1.0977832777921135 36.0803706525274919  8.7512093077224939   F   F   F
 -1.0977832777921139 41.0619701850756726  8.1066934958794281   F   F   F
 -4.3911331111684584 36.9953945634855614  9.7397572083196273   F   F   F
 -2.1955665555842292 40.4286591061876877  9.2955638785358925   F   F   F
 -1.0977832777921135 42.1683396965202846 10.1774182832536013   F   F   F
 -2.1955665555842279 46.5166281501804804 10.7217728540670016   F   F   F
 -4.3911331111684584 48.3005793341335448 10.4909665160421195   F   F   F
 -1.0977832777921139 35.5374268052230420 11.0353210868555198   F   F   F
 -5.4889163889605719 50.8649166038406690 11.2661274248804020   F   F   F
 -5.4889163889605745 44.2340037125434264 12.1240302284823205   F   F   F
 -2.1955665555842292 39.8857152588832307 11.5796756576689184   F   F   F
 -4.3911331111684593 38.1017640749301663 11.8104819956938023   F   F   F
 -3.2933498333763436 45.0586603919179538 12.0173367326028941   F   F   F
 -2.1955665555842279 49.1252360135080721 10.3842730201626949   F   F   F
 -4.3911331111684575 45.6919714708059459 10.8284663499464280   F   F   F
 -3.2933498333763440 50.0402599244661346 11.3728209207598283   F   F   F
 -3.2933498333763440 36.3620834845975693 10.9286275909760953   F   F   F
 -3.2933498333763440 41.3436830171457501 10.2841117791330294   F   F   F
 -2.1955665555842288 37.2771073955556389 11.9171754915732286   F   F   F
 -4.3911331111684584 40.7103719382577651 11.4729821617894938   F   F   F
 -3.2933498333763436 42.4500525285903620 12.3548365665072026   T   T   T
 -4.3911331111684593 46.7983409822505507 12.8991911373206012   T   T   T
 -2.1955665555842296 48.5822921662036151 12.6683847992957208   T   T   T
 -3.2933498333763440 35.8191396372931194 13.2127393701091211   T   T   T
 -3.2933498333763418 51.1466294359107465 13.4435457081340033   T   T   T
 -3.2933498333763436 44.5157165446135039 14.3014485117359200   T   T   T
 -4.3911331111684584 40.1674280909533081 13.7570939409225215   T   T   T
 -2.1955665555842288 38.3834769070002437 13.9879002789474018   T   T   T
 -5.4889163889605719 45.3403732239880384 14.1947550158564955   T   T   T
 -4.3911331111684575 49.4069488455781425 12.5616913034162945   T   T   T
 -2.1955665555842283 45.9736843028760234 13.0058846332000293   T   T   T
 -5.4889163889605737 50.3219727565362120 13.5502392040134296   T   T   T
 -1.0977832777921139 36.6437963166676468 13.1060458742296948   T   T   T
 -1.0977832777921126 41.6253958492158276 12.4615300623866290   T   T   T
 -4.3911331111684584 37.5588202276257164 14.0945937748268282   T   T   T
 -2.1955665555842279 40.9920847703278426 13.6504004450430934   T   T   T
 -1.0977832777921122 42.7317653606604395 14.5322548497608022   T   T   T
 -2.1955665555842283 47.0800538143206353 15.0766094205742025   T   T   T
 -4.3911331111684593 48.8640049982736997 14.8458030825493221   T   T   T
 -1.0977832777921126 36.1008524693631969 15.3901576533627225   T   T   T
 -3.2933498333763440 34.3169012854101325 15.6209639913876028   T   T   T
 -5.4889163889605754 44.7974293766835814 16.4788667949895213   T   T   T
 -2.1955665555842279 40.4491409230233927 15.9345122241761228   T   T   T
 -4.3911331111684593 38.6651897390703283 16.1653185622010049   T   T   T
 -3.2933498333763436 45.6220860560581087 16.3721732991100950   T   T   T
 -2.1955665555842283 49.6886616776482271 14.7391095866698958   T   T   T
 -4.3911331111684593 46.2553971349461079 15.1833029164536288   T   T   T
 -3.2933498333763422 50.6036855886062966 15.7276574872670309   T   T   T
 -3.2933498333763449 36.9255091487377243 15.2834641574832961   T   T   T
 -3.2933498333763436 41.9071086812859050 14.6389483456402303   T   T   T
 -2.1955665555842283 37.8405330596957938 16.2720120580804313   T   T   T
 -4.3911331111684602 41.2737976023979201 15.8278187282966947   T   T   T
  5.4889163889605754  7.6637448993088144  8.0000000000000000   F   F   F
  4.3911331111684611 12.0120333529690075  8.5443545708134003   F   F   F
  6.5866996667526916 13.7959845369220719  8.3135482327885182   F   F   F
  5.4889163889605754  1.0328320080115707  8.8579028036019203   F   F   F
  5.4889163889605763 16.3603218066292015  9.0887091416268007   F   F   F
  5.4889163889605754  9.7294089153319554  9.9466119452287192   F   F   F
  4.3911331111684602  5.3811204616717641  9.4022573744153188   F   F   F
  6.5866996667526907  3.5971692777186983  9.6330637124402010   F   F   F
  3.2933498333763467 10.5540655947064863  9.8399184493492928   F   F   F
  4.3911331111684611 14.6206412162965993  8.2068547369090936   F   F   F
  6.5866996667526916 11.1873766735944766  8.6510480666928267   F   F   F
  3.2933498333763462 15.5356651272546653  9.1954026375062270   F   F   F
  7.6844829445448060  1.8574886873860998  8.7512093077224939   F   F   F
  7.6844829445448060  6.8390882199342817  8.1066934958794281   F   F   F
  4.3911331111684611  2.7725125983441679  9.7397572083196273   F   F   F
  6.5866996667526898  6.2057771410462950  9.2955638785358925   F   F   F
  7.6844829445448060  7.9454577313788928 10.1774182832536013   F   F   F
  6.5866996667526916 12.2937461850390868 10.7217728540670016   F   F   F
  4.3911331111684611 14.0776973689921512 10.4909665160421195   F   F   F
  7.6844829445448060  1.3145448400816491 11.0353210868555198   F   F   F
  3.2933498333763476 16.6420346386992790 11.2661274248804020   F   F   F
  3.2933498333763449 10.0111217474020346 12.1240302284823205   F   F   F
  6.5866996667526898  5.6628332937418424 11.5796756576689184   F   F   F
  4.3911331111684602  3.8788821097887776 11.8104819956938023   F   F   F
  5.4889163889605754 10.8357784267765656 12.0173367326028941   F   F   F
  6.5866996667526916 14.9023540483666785 10.3842730201626949   F   F   F
  4.3911331111684619 11.4690895056645576 10.8284663499464280   F   F   F
  5.4889163889605754 15.8173779593247428 11.3728209207598283   F   F   F
  5.4889163889605754  2.1392015194561784 10.9286275909760953   F   F   F
  5.4889163889605754  7.1208010520043610 10.2841117791330294   F   F   F
  6.5866996667526907  3.0542254304142467 11.9171754915732286   F   F   F
  4.3911331111684611  6.4874899731163733 11.4729821617894938   F   F   F
  5.4889163889605754  8.2271705634489720 12.3548365665072026   T   T   T
  4.3911331111684602 12.5754590171091643 12.8991911373206012   T   T   T
  6.5866996667526898 14.3594102010622287 12.6683847992957208   T   T   T
  5.4889163889605754  1.5962576721517279 13.2127393701091211   T   T   T
  5.4889163889605772 16.9237474707693565 13.4435457081340033   T   T   T
  5.4889163889605754 10.2928345794721139 14.3014485117359200   T   T   T
  4.3911331111684611  5.9445461258119208 13.7570939409225215   T   T   T
  6.5866996667526907  4.1605949418588555 13.9879002789474018   T   T   T
  3.2933498333763476 11.1174912588466448 14.1947550158564955   T   T   T
  4.3911331111684619 15.1840668804367560 12.5616913034162945   T   T   T
  6.5866996667526916 11.7508023377346351 13.0058846332000293   T   T   T
  3.2933498333763453 16.0990907913948220 13.5502392040134296   T   T   T
  7.6844829445448060  2.4209143515262568 13.1060458742296948   T   T   T
  7.6844829445448068  7.4025138840744402 12.4615300623866290   T   T   T
  4.3911331111684611  3.3359382624843250 14.0945937748268282   T   T   T
  6.5866996667526916  6.7692028051864508 13.6504004450430934   T   T   T
  7.6844829445448077  8.5088833955190495 14.5322548497608022   T   T   T
  6.5866996667526916 12.8571718491792435 15.0766094205742025   T   T   T
  4.3911331111684602 14.6411230331323079 14.8458030825493221   T   T   T
  7.6844829445448068  1.8779705042218062 15.3901576533627225   T   T   T
  5.4889163889605754  0.0940193202687433 15.6209639913876028   T   T   T
  3.2933498333763440 10.5745474115421914 16.4788667949895213   T   T   T
  6.5866996667526916  6.2262589578819991 15.9345122241761228   T   T   T
  4.3911331111684602  4.4423077739289347 16.1653185622010049   T   T   T
  5.4889163889605754 11.3992040909167223 16.3721732991100950   T   T   T
  6.5866996667526916 15.4657797125068335 14.7391095866698958   T   T   T
  4.3911331111684602 12.0325151698047144 15.1833029164536288   T   T   T
  5.4889163889605772 16.3808036234649030 15.7276574872670309   T   T   T
  5.4889163889605745  2.7026271835963351 15.2834641574832961   T   T   T
  5.4889163889605754  7.6842267161445177 14.6389483456402303   T   T   T
  6.5866996667526916  3.6176510945544034 16.2720120580804313   T   T   T
  4.3911331111684593  7.0509156372565291 15.8278187282966947   T   T   T
  3.2933498333763458 24.7751858818795085  8.0000000000000000   F   F   F
  2.1955665555842314 29.1234743355397043  8.5443545708134003   F   F   F
  4.3911331111684619 30.9074255194927687  8.3135482327885182   F   F   F
  3.2933498333763458 18.1442729905822659  8.8579028036019203   F   F   F
  3.2933498333763467 33.4717627891999001  9.0887091416268007   F   F   F
  3.2933498333763458 26.8408498979026504  9.9466119452287192   F   F   F
  2.1955665555842305 22.4925614442424582  9.4022573744153188   F   F   F
  4.3911331111684611 20.7086102602893938  9.6330637124402010   F   F   F
  1.0977832777921173 27.6655065772771813  9.8399184493492928   F   F   F
  2.1955665555842319 31.7320821988672961  8.2068547369090936   F   F   F
  4.3911331111684611 28.2988176561651699  8.6510480666928267   F   F   F
  1.0977832777921166 32.6471061098253585  9.1954026375062270   F   F   F
  5.4889163889605763 18.9689296699567933  8.7512093077224939   F   F   F
  5.4889163889605754 23.9505292025049776  8.1066934958794281   F   F   F
  2.1955665555842314 19.8839535809148629  9.7397572083196273   F   F   F
  4.3911331111684611 23.3172181236169891  9.2955638785358925   F   F   F
  5.4889163889605763 25.0568987139495860 10.1774182832536013   F   F   F
  4.3911331111684619 29.4051871676097818 10.7217728540670016   F   F   F
  2.1955665555842310 31.1891383515628462 10.4909665160421195   F   F   F
  5.4889163889605754 18.4259858226523434 11.0353210868555198   F   F   F
  1.0977832777921177 33.7534756212699705 11.2661274248804020   F   F   F
  1.0977832777921155 27.1225627299727279 12.1240302284823205   F   F   F
  4.3911331111684611 22.7742742763125392 11.5796756576689184   F   F   F
  2.1955665555842310 20.9903230923594712 11.8104819956938023   F   F   F
  3.2933498333763462 27.9472194093472623 12.0173367326028941   F   F   F
  4.3911331111684619 32.0137950309373736 10.3842730201626949   F   F   F
  2.1955665555842323 28.5805304882352544 10.8284663499464280   F   F   F
  3.2933498333763458 32.9288189418954360 11.3728209207598283   F   F   F
  3.2933498333763458 19.2506425020268743 10.9286275909760953   F   F   F
  3.2933498333763458 24.2322420345750551 10.2841117791330294   F   F   F
  4.3911331111684611 20.1656664129849403 11.9171754915732286   F   F   F
  2.1955665555842314 23.5989309556870666 11.4729821617894938   F   F   F
  3.2933498333763462 25.3386115460196670 12.3548365665072026   T   T   T
  2.1955665555842301 29.6868999996798593 12.8991911373206012   T   T   T
  4.3911331111684602 31.4708511836329237 12.6683847992957208   T   T   T
  3.2933498333763458 18.7076986547224244 13.2127393701091211   T   T   T
  3.2933498333763480 34.0351884533400550 13.4435457081340033   T   T   T
  3.2933498333763462 27.4042755620428089 14.3014485117359200   T   T   T
  2.1955665555842314 23.0559871083826167 13.7570939409225215   T   T   T
  4.3911331111684611 21.2720359244295523 13.9879002789474018   T   T   T
  1.0977832777921179 28.2289322414173398 14.1947550158564955   T   T   T
  2.1955665555842323 32.2955078630074510 12.5616913034162945   T   T   T
  4.3911331111684611 28.8622433203053319 13.0058846332000293   T   T   T
  1.0977832777921157 33.2105317739655135 13.5502392040134296   T   T   T
  5.4889163889605754 19.5323553340969518 13.1060458742296948   T   T   T
  5.4889163889605772 24.5139548666451361 12.4615300623866290   T   T   T
  2.1955665555842314 20.4473792450550214 14.0945937748268282   T   T   T
  4.3911331111684619 23.8806437877571440 13.6504004450430934   T   T   T
  5.4889163889605772 25.6203243780897445 14.5322548497608022   T   T   T
  4.3911331111684611 29.9686128317499367 15.0766094205742025   T   T   T
  2.1955665555842310 31.7525640157030011 14.8458030825493221   T   T   T
  5.4889163889605772 18.9894114867925019 15.3901576533627225   T   T   T
  3.2933498333763458 17.2054603028394375 15.6209639913876028   T   T   T
  1.0977832777921146 27.6859883941128864 16.4788667949895213   T   T   T
  4.3911331111684619 23.3376999404526941 15.9345122241761228   T   T   T
  2.1955665555842310 21.5537487564996297 16.1653185622010049   T   T   T
  3.2933498333763462 28.5106450734874173 16.3721732991100950   T   T   T
  4.3911331111684611 32.5772206950775285 14.7391095866698958   T   T   T
  2.1955665555842301 29.1439561523754094 15.1833029164536288   T   T   T
  3.2933498333763476 33.4922446060355981 15.7276574872670309   T   T   T
  3.2933498333763449 19.8140681661670293 15.2834641574832961   T   T   T
  3.2933498333763462 24.7956676987152136 14.6389483456402303   T   T   T
  4.3911331111684611 20.7290920771250988 16.2720120580804313   T   T   T
  2.1955665555842296 24.1623566198272250 15.8278187282966947   T   T   T
  1.0977832777921164 41.8866268644502071  8.0000000000000000   F   F   F
  0.0000000000000016 46.2349153181103958  8.5443545708134003   F   F   F
  2.1955665555842323 48.0188665020634602  8.3135482327885182   F   F   F
  1.0977832777921159 35.2557139731529574  8.8579028036019203   F   F   F
  1.0977832777921168 50.5832037717705916  9.0887091416268007   F   F   F
  1.0977832777921162 43.9522908804733419  9.9466119452287192   F   F   F
  0.0000000000000011 39.6040024268131532  9.4022573744153188   F   F   F
  2.1955665555842314 37.8200512428600888  9.6330637124402010   F   F   F
 -1.0977832777921124 44.7769475598478763  9.8399184493492928   F   F   F
  0.0000000000000021 48.8435231814379875  8.2068547369090936   F   F   F
  2.1955665555842319 45.4102586387358684  8.6510480666928267   F   F   F
 -1.0977832777921130 49.7585470923960571  9.1954026375062270   F   F   F
  3.2933498333763467 36.0803706525274919  8.7512093077224939   F   F   F
  3.2933498333763462 41.0619701850756726  8.1066934958794281   F   F   F
  0.0000000000000017 36.9953945634855614  9.7397572083196273   F   F   F
  2.1955665555842310 40.4286591061876877  9.2955638785358925   F   F   F
  3.2933498333763467 42.1683396965202846 10.1774182832536013   F   F   F
  2.1955665555842323 46.5166281501804804 10.7217728540670016   F   F   F
  0.0000000000000014 48.3005793341335448 10.4909665160421195   F   F   F
  3.2933498333763462 35.5374268052230420 11.0353210868555198   F   F   F
 -1.0977832777921119 50.8649166038406690 11.2661274248804020   F   F   F
 -1.0977832777921142 44.2340037125434264 12.1240302284823205   F   F   F
  2.1955665555842310 39.8857152588832307 11.5796756576689184   F   F   F
  0.0000000000000013 38.1017640749301663 11.8104819956938023   F   F   F
  1.0977832777921166 45.0586603919179538 12.0173367326028941   F   F   F
  2.1955665555842323 49.1252360135080721 10.3842730201626949   F   F   F
  0.0000000000000025 45.6919714708059459 10.8284663499464280   F   F   F
  1.0977832777921164 50.0402599244661346 11.3728209207598283   F   F   F
  1.0977832777921164 36.3620834845975693 10.9286275909760953   F   F   F
  1.0977832777921164 41.3436830171457501 10.2841117791330294   F   F   F
  2.1955665555842314 37.2771073955556389 11.9171754915732286   F   F   F
  0.0000000000000016 40.7103719382577651 11.4729821617894938   F   F   F
  1.0977832777921166 42.4500525285903620 12.3548365665072026   T   T   T
  0.0000000000000006 46.7983409822505507 12.8991911373206012   T   T   T
  2.1955665555842305 48.5822921662036151 12.6683847992957208   T   T   T
  1.0977832777921164 35.8191396372931194 13.2127393701091211   T   T   T
  1.0977832777921184 51.1466294359107465 13.4435457081340033   T   T   T
  1.0977832777921166 44.5157165446135039 14.3014485117359200   T   T   T
  0.0000000000000020 40.1674280909533081 13.7570939409225215   T   T   T
  2.1955665555842314 38.3834769070002437 13.9879002789474018   T   T   T
 -1.0977832777921117 45.3403732239880384 14.1947550158564955   T   T   T
  0.0000000000000025 49.4069488455781425 12.5616913034162945   T   T   T
  2.1955665555842319 45.9736843028760234 13.0058846332000293   T   T   T
 -1.0977832777921139 50.3219727565362120 13.5502392040134296   T   T   T
  3.2933498333763462 36.6437963166676468 13.1060458742296948   T   T   T
  3.2933498333763476 41.6253958492158276 12.4615300623866290   T   T   T
  0.0000000000000016 37.5588202276257164 14.0945937748268282   T   T   T
  2.1955665555842323 40.9920847703278426 13.6504004450430934   T   T   T
  3.2933498333763480 42.7317653606604395 14.5322548497608022   T   T   T
  2.1955665555842319 47.0800538143206353 15.0766094205742025   T   T   T
  0.0000000000000012 48.8640049982736997 14.8458030825493221   T   T   T
  3.2933498333763476 36.1008524693631969 15.3901576533627225   T   T   T
  1.0977832777921164 34.3169012854101325 15.6209639913876028   T   T   T
 -1.0977832777921150 44.7974293766835814 16.4788667949895213   T   T   T
  2.1955665555842323 40.4491409230233927 15.9345122241761228   T   T   T
  0.0000000000000012 38.6651897390703283 16.1653185622010049   T   T   T
  1.0977832777921166 45.6220860560581087 16.3721732991100950   T   T   T
  2.1955665555842319 49.6886616776482271 14.7391095866698958   T   T   T
  0.0000000000000006 46.2553971349461079 15.1833029164536288   T   T   T
  1.0977832777921177 50.6036855886062966 15.7276574872670309   T   T   T
  1.0977832777921153 36.9255091487377243 15.2834641574832961   T   T   T
  1.0977832777921166 41.9071086812859050 14.6389483456402303   T   T   T
  2.1955665555842319 37.8405330596957938 16.2720120580804313   T   T   T
 -0.0000000000000002 41.2737976023979201 15.8278187282966947   T   T   T
  9.8800495001290365  7.6637448993088144  8.0000000000000000   F   F   F
  8.7822662223369203 12.0120333529690075  8.5443545708134003   F   F   F
 10.9778327779211509 13.7959845369220719  8.3135482327885182   F   F   F
  9.8800495001290347  1.0328320080115707  8.8579028036019203   F   F   F
  9.8800495001290365 16.3603218066292015  9.0887091416268007   F   F   F
  9.8800495001290365  9.7294089153319554  9.9466119452287192   F   F   F
  8.7822662223369203  5.3811204616717641  9.4022573744153188   F   F   F
 10.9778327779211509  3.5971692777186983  9.6330637124402010   F   F   F
  7.6844829445448068 10.5540655947064863  9.8399184493492928   F   F   F
  8.7822662223369221 14.6206412162965993  8.2068547369090936   F   F   F
 10.9778327779211509 11.1873766735944766  8.6510480666928267   F   F   F
  7.6844829445448060 15.5356651272546653  9.1954026375062270   F   F   F
 12.0756160557132652  1.8574886873860998  8.7512093077224939   F   F   F
 12.0756160557132652  6.8390882199342817  8.1066934958794281   F   F   F
  8.7822662223369203  2.7725125983441679  9.7397572083196273   F   F   F
 10.9778327779211509  6.2057771410462950  9.2955638785358925   F   F   F
 12.0756160557132652  7.9454577313788928 10.1774182832536013   F   F   F
 10.9778327779211509 12.2937461850390868 10.7217728540670016   F   F   F
  8.7822662223369203 14.0776973689921512 10.4909665160421195   F   F   F
 12.0756160557132652  1.3145448400816491 11.0353210868555198   F   F   F
  7.6844829445448077 16.6420346386992790 11.2661274248804020   F   F   F
  7.6844829445448051 10.0111217474020346 12.1240302284823205   F   F   F
 10.9778327779211509  5.6628332937418424 11.5796756576689184   F   F   F
  8.7822662223369203  3.8788821097887776 11.8104819956938023   F   F   F
  9.8800495001290365 10.8357784267765656 12.0173367326028941   F   F   F
 10.9778327779211509 14.9023540483666785 10.3842730201626949   F   F   F
  8.7822662223369221 11.4690895056645576 10.8284663499464280   F   F   F
  9.8800495001290365 15.8173779593247428 11.3728209207598283   F   F   F
  9.8800495001290365  2.1392015194561784 10.9286275909760953   F   F   F
  9.8800495001290365  7.1208010520043610 10.2841117791330294   F   F   F
 10.9778327779211509  3.0542254304142467 11.9171754915732286   F   F   F
  8.7822662223369203  6.4874899731163733 11.4729821617894938   F   F   F
  9.8800495001290365  8.2271705634489720 12.3548365665072026   T   T   T
  8.7822662223369203 12.5754590171091643 12.8991911373206012   T   T   T
 10.9778327779211509 14.3594102010622287 12.6683847992957208   T   T   T
  9.8800495001290365  1.5962576721517279 13.2127393701091211   T   T   T
  9.8800495001290383 16.9237474707693565 13.4435457081340033   T   T   T
  9.8800495001290365 10.2928345794721139 14.3014485117359200   T   T   T
  8.7822662223369221  5.9445461258119208 13.7570939409225215   T   T   T
 10.9778327779211509  4.1605949418588555 13.9879002789474018   T   T   T
  7.6844829445448077 11.1174912588466448 14.1947550158564955   T   T   T
  8.7822662223369221 15.1840668804367560 12.5616913034162945   T   T   T
 10.9778327779211509 11.7508023377346351 13.0058846332000293   T   T   T
  7.6844829445448060 16.0990907913948220 13.5502392040134296   T   T   T
 12.0756160557132652  2.4209143515262568 13.1060458742296948   T   T   T
 12.0756160557132670  7.4025138840744402 12.4615300623866290   T   T   T
  8.7822662223369203  3.3359382624843250 14.0945937748268282   T   T   T
 10.9778327779211509  6.7692028051864508 13.6504004450430934   T   T   T
 12.0756160557132670  8.5088833955190495 14.5322548497608022   T   T   T
 10.9778327779211509 12.8571718491792435 15.0766094205742025   T   T   T
  8.7822662223369203 14.6411230331323079 14.8458030825493221   T   T   T
 12.0756160557132670  1.8779705042218062 15.3901576533627225   T   T   T
  9.8800495001290365  0.0940193202687433 15.6209639913876028   T   T   T
  7.6844829445448042 10.5745474115421914 16.4788667949895213   T   T   T
 10.9778327779211509  6.2262589578819991 15.9345122241761228   T   T   T
  8.7822662223369203  4.4423077739289347 16.1653185622010049   T   T   T
  9.8800495001290365 11.3992040909167223 16.3721732991100950   T   T   T
 10.9778327779211509 15.4657797125068335 14.7391095866698958   T   T   T
  8.7822662223369203 12.0325151698047144 15.1833029164536288   T   T   T
  9.8800495001290365 16.3808036234649030 15.7276574872670309   T   T   T
  9.8800495001290347  2.7026271835963351 15.2834641574832961   T   T   T
  9.8800495001290365  7.6842267161445177 14.6389483456402303   T   T   T
 10.9778327779211509  3.6176510945544034 16.2720120580804313   T   T   T
  8.7822662223369186  7.0509156372565291 15.8278187282966947   T   T   T
  7.6844829445448060 24.7751858818795085  8.0000000000000000   F   F   F
  6.5866996667526916 29.1234743355397043  8.5443545708134003   F   F   F
  8.7822662223369221 30.9074255194927687  8.3135482327885182   F   F   F
  7.6844829445448060 18.1442729905822659  8.8579028036019203   F   F   F
  7.6844829445448068 33.4717627891999001  9.0887091416268007   F   F   F
  7.6844829445448060 26.8408498979026504  9.9466119452287192   F   F   F
  6.5866996667526907 22.4925614442424582  9.4022573744153188   F   F   F
  8.7822662223369221 20.7086102602893938  9.6330637124402010   F   F   F
  5.4889163889605772 27.6655065772771813  9.8399184493492928   F   F   F
  6.5866996667526916 31.7320821988672961  8.2068547369090936   F   F   F
  8.7822662223369221 28.2988176561651699  8.6510480666928267   F   F   F
  5.4889163889605772 32.6471061098253585  9.1954026375062270   F   F   F
  9.8800495001290365 18.9689296699567933  8.7512093077224939   F   F   F
  9.8800495001290365 23.9505292025049776  8.1066934958794281   F   F   F
  6.5866996667526916 19.8839535809148629  9.7397572083196273   F   F   F
  8.7822662223369203 23.3172181236169891  9.2955638785358925   F   F   F
  9.8800495001290365 25.0568987139495860 10.1774182832536013   F   F   F
  8.7822662223369221 29.4051871676097818 10.7217728540670016   F   F   F
  6.5866996667526916 31.1891383515628462 10.4909665160421195   F   F   F
  9.8800495001290365 18.4259858226523434 11.0353210868555198   F   F   F
  5.4889163889605781 33.7534756212699705 11.2661274248804020   F   F   F
  5.4889163889605754 27.1225627299727279 12.1240302284823205   F   F   F
  8.7822662223369203 22.7742742763125392 11.5796756576689184   F   F   F
  6.5866996667526907 20.9903230923594712 11.8104819956938023   F   F   F
  7.6844829445448060 27.9472194093472623 12.0173367326028941   F   F   F
  8.7822662223369221 32.0137950309373736 10.3842730201626949   F   F   F
  6.5866996667526925 28.5805304882352544 10.8284663499464280   F   F   F
  7.6844829445448060 32.9288189418954360 11.3728209207598283   F   F   F
  7.6844829445448060 19.2506425020268743 10.9286275909760953   F   F   F
  7.6844829445448060 24.2322420345750551 10.2841117791330294   F   F   F
  8.7822662223369221 20.1656664129849403 11.9171754915732286   F   F   F
  6.5866996667526916 23.5989309556870666 11.4729821617894938   F   F   F
  7.6844829445448060 25.3386115460196670 12.3548365665072026   T   T   T
  6.5866996667526907 29.6868999996798593 12.8991911373206012   T   T   T
  8.7822662223369203 31.4708511836329237 12.6683847992957208   T   T   T
  7.6844829445448060 18.7076986547224244 13.2127393701091211   T   T   T
  7.6844829445448077 34.0351884533400550 13.4435457081340033   T   T   T
  7.6844829445448060 27.4042755620428089 14.3014485117359200   T   T   T
  6.5866996667526916 23.0559871083826167 13.7570939409225215   T   T   T
  8.7822662223369221 21.2720359244295523 13.9879002789474018   T   T   T
  5.4889163889605781 28.2289322414173398 14.1947550158564955   T   T   T
  6.5866996667526925 32.2955078630074510 12.5616913034162945   T   T   T
  8.7822662223369221 28.8622433203053319 13.0058846332000293   T   T   T
  5.4889163889605754 33.2105317739655135 13.5502392040134296   T   T   T
  9.8800495001290365 19.5323553340969518 13.1060458742296948   T   T   T
  9.8800495001290365 24.5139548666451361 12.4615300623866290   T   T   T
  6.5866996667526916 20.4473792450550214 14.0945937748268282   T   T   T
  8.7822662223369221 23.8806437877571440 13.6504004450430934   T   T   T
  9.8800495001290383 25.6203243780897445 14.5322548497608022   T   T   T
  8.7822662223369221 29.9686128317499367 15.0766094205742025   T   T   T
  6.5866996667526907 31.7525640157030011 14.8458030825493221   T   T   T
  9.8800495001290365 18.9894114867925019 15.3901576533627225   T   T   T
  7.6844829445448060 17.2054603028394375 15.6209639913876028   T   T   T
  5.4889163889605745 27.6859883941128864 16.4788667949895213   T   T   T
  8.7822662223369221 23.3376999404526941 15.9345122241761228   T   T   T
  6.5866996667526907 21.5537487564996297 16.1653185622010049   T   T   T
  7.6844829445448060 28.5106450734874173 16.3721732991100950   T   T   T
  8.7822662223369221 32.5772206950775285 14.7391095866698958   T   T   T
  6.5866996667526907 29.1439561523754094 15.1833029164536288   T   T   T
  7.6844829445448077 33.4922446060355981 15.7276574872670309   T   T   T
  7.6844829445448051 19.8140681661670293 15.2834641574832961   T   T   T
  7.6844829445448060 24.7956676987152136 14.6389483456402303   T   T   T
  8.7822662223369221 20.7290920771250988 16.2720120580804313   T   T   T
  6.5866996667526898 24.1623566198272250 15.8278187282966947   T   T   T
  5.4889163889605763 41.8866268644502071  8.0000000000000000   F   F   F
  4.3911331111684619 46.2349153181103958  8.5443545708134003   F   F   F
  6.5866996667526925 48.0188665020634602  8.3135482327885182   F   F   F
  5.4889163889605763 35.2557139731529574  8.8579028036019203   F   F   F
  5.4889163889605772 50.5832037717705916  9.0887091416268007   F   F   F
  5.4889163889605763 43.9522908804733419  9.9466119452287192   F   F   F
  4.3911331111684611 39.6040024268131532  9.4022573744153188   F   F   F
  6.5866996667526916 37.8200512428600888  9.6330637124402010   F   F   F
  3.2933498333763476 44.7769475598478763  9.8399184493492928   F   F   F
  4.3911331111684619 48.8435231814379875  8.2068547369090936   F   F   F
  6.5866996667526916 45.4102586387358684  8.6510480666928267   F   F   F
  3.2933498333763471 49.7585470923960571  9.1954026375062270   F   F   F
  7.6844829445448068 36.0803706525274919  8.7512093077224939   F   F   F
  7.6844829445448060 41.0619701850756726  8.1066934958794281   F   F   F
  4.3911331111684619 36.9953945634855614  9.7397572083196273   F   F   F
  6.5866996667526916 40.4286591061876877  9.2955638785358925   F   F   F
  7.6844829445448068 42.1683396965202846 10.1774182832536013   F   F   F
  6.5866996667526925 46.5166281501804804 10.7217728540670016   F   F   F
  4.3911331111684619 48.3005793341335448 10.4909665160421195   F   F   F
  7.6844829445448060 35.5374268052230420 11.0353210868555198   F   F   F
  3.2933498333763485 50.8649166038406690 11.2661274248804020   F   F   F
  3.2933498333763458 44.2340037125434264 12.1240302284823205   F   F   F
  6.5866996667526916 39.8857152588832307 11.5796756576689184   F   F   F
  4.3911331111684611 38.1017640749301663 11.8104819956938023   F   F   F
  5.4889163889605772 45.0586603919179538 12.0173367326028941   F   F   F
  6.5866996667526925 49.1252360135080721 10.3842730201626949   F   F   F
  4.3911331111684628 45.6919714708059459 10.8284663499464280   F   F   F
  5.4889163889605763 50.0402599244661346 11.3728209207598283   F   F   F
  5.4889163889605763 36.3620834845975693 10.9286275909760953   F   F   F
  5.4889163889605763 41.3436830171457501 10.2841117791330294   F   F   F
  6.5866996667526916 37.2771073955556389 11.9171754915732286   F   F   F
  4.3911331111684619 40.7103719382577651 11.4729821617894938   F   F   F
  5.4889163889605772 42.4500525285903620 12.3548365665072026   T   T   T
  4.3911331111684611 46.7983409822505507 12.8991911373206012   T   T   T
  6.5866996667526907 48.5822921662036151 12.6683847992957208   T   T   T
  5.4889163889605763 35.8191396372931194 13.2127393701091211   T   T   T
  5.4889163889605790 51.1466294359107465 13.4435457081340033   T   T   T
  5.4889163889605772 44.5157165446135039 14.3014485117359200   T   T   T
  4.3911331111684619 40.1674280909533081 13.7570939409225215   T   T   T
  6.5866996667526916 38.3834769070002437 13.9879002789474018   T   T   T
  3.2933498333763485 45.3403732239880384 14.1947550158564955   T   T   T
  4.3911331111684628 49.4069488455781425 12.5616913034162945   T   T   T
  6.5866996667526916 45.9736843028760234 13.0058846332000293   T   T   T
  3.2933498333763462 50.3219727565362120 13.5502392040134296   T   T   T
  7.6844829445448060 36.6437963166676468 13.1060458742296948   T   T   T
  7.6844829445448077 41.6253958492158276 12.4615300623866290   T   T   T
  4.3911331111684619 37.5588202276257164 14.0945937748268282   T   T   T
  6.5866996667526925 40.9920847703278426 13.6504004450430934   T   T   T
  7.6844829445448077 42.7317653606604395 14.5322548497608022   T   T   T
  6.5866996667526916 47.0800538143206353 15.0766094205742025   T   T   T
  4.3911331111684611 48.8640049982736997 14.8458030825493221   T   T   T
  7.6844829445448077 36.1008524693631969 15.3901576533627225   T   T   T
  5.4889163889605763 34.3169012854101325 15.6209639913876028   T   T   T
  3.2933498333763449 44.7974293766835814 16.4788667949895213   T   T   T
  6.5866996667526925 40.4491409230233927 15.9345122241761228   T   T   T
  4.3911331111684611 38.6651897390703283 16.1653185622010049   T   T   T
  5.4889163889605772 45.6220860560581087 16.3721732991100950   T   T   T
  6.5866996667526916 49.6886616776482271 14.7391095866698958   T   T   T
  4.3911331111684611 46.2553971349461079 15.1833029164536288   T   T   T
  5.4889163889605781 50.6036855886062966 15.7276574872670309   T   T   T
  5.4889163889605754 36.9255091487377243 15.2834641574832961   T   T   T
  5.4889163889605772 41.9071086812859050 14.6389483456402303   T   T   T
  6.5866996667526916 37.8405330596957938 16.2720120580804313   T   T   T
  4.3911331111684602 41.2737976023979201 15.8278187282966947   T   T   T
