Mo Se Mo Se Mo Se Mo Se Mo Se Mo Se Mo Se Mo Se Mo Se Mo Se Mo Se Mo Se Mo Se Mo Se Mo Se Mo Se
 1.0000000000000000
     6.5780000000000003    0.0000000000000000    0.0000000000000000
    -3.2889999999999984    5.6967151060940369    0.0000000000000000
     0.0000000000000000    0.0000000000000000   64.6130399999999980
 Mo  Se  Mo  Se  Mo  Se  Mo  Se  Mo  Se  Mo  Se  Mo  Se  Mo  Se  Mo  Se  Mo  Se  Mo  Se  Mo  Se  Mo  Se  Mo  Se  Mo  Se  Mo  Se 
   2   4   2   4   2   4   2   4   2   4   2   4   2   4   2   4   2   4   2   4   2   4   2   4   2   4   2   4   2   4   2   4
Selective dynamics
Cartesian
 -0.0000000001644494  1.8989050354596246  9.6807699999999972   F   F   F
  1.6445000001644514  0.9494525175873952 16.1452699999999965   F   F   F
 -0.0000000001644486  1.8989050354596253 17.8260399999999990   F   F   F
  1.6445000001644507  0.9494525175873948 11.3615399999999998   F   F   F
  1.6445000001644505  0.9494525175873945  7.9999999999999982   F   F   F
 -0.0000000001644492  1.8989050354596260 14.4644999999999992   F   F   F
 -0.0000000001644485  1.8989050354596260 22.6097699999999975   F   F   F
  1.6445000001644519  0.9494525175873967 29.0742699999999985   F   F   F
 -0.0000000001644480  1.8989050354596269 30.7550400000000010   F   F   F
  1.6445000001644516  0.9494525175873962 24.2905400000000000   F   F   F
  1.6445000001644514  0.9494525175873959 20.9289999999999949   F   F   F
 -0.0000000001644481  1.8989050354596273 27.3934999999999960   F   F   F
 -0.0000000001644479  1.8989050354596275 35.5387699999999924   T   T   T
  1.6445000001644530  0.9494525175873981 42.0032699999999934   T   T   T
 -0.0000000001644471  1.8989050354596282 43.6840399999999960   T   T   T
  1.6445000001644527  0.9494525175873975 37.2195399999999950   T   T   T
  1.6445000001644525  0.9494525175873973 33.8579999999999970   T   T   T
 -0.0000000001644475  1.8989050354596286 40.3224999999999980   T   T   T
 -0.0000000001644468  1.8989050354596289 48.4677699999999945   T   T   T
  1.6445000001644534  0.9494525175873993 54.9322699999999955   T   T   T
 -0.0000000001644465  1.8989050354596297 56.6130399999999980   T   T   T
  1.6445000001644527  0.9494525175873989 50.1485399999999970   T   T   T
  1.6445000001644530  0.9494525175873988 46.7869999999999990   T   T   T
 -0.0000000001644467  1.8989050354596297 53.2515000000000001   T   T   T
 -1.6445000001644485  4.7472625885066435  9.6807699999999972   F   F   F
  0.0000000001644522  3.7978100706344136 16.1452699999999965   F   F   F
 -1.6445000001644479  4.7472625885066435 17.8260399999999990   F   F   F
  0.0000000001644516  3.7978100706344131 11.3615399999999998   F   F   F
  0.0000000001644513  3.7978100706344131  7.9999999999999982   F   F   F
 -1.6445000001644483  4.7472625885066444 14.4644999999999992   F   F   F
 -1.6445000001644476  4.7472625885066444 22.6097699999999975   F   F   F
  0.0000000001644527  3.7978100706344149 29.0742699999999985   F   F   F
 -1.6445000001644472  4.7472625885066453 30.7550400000000010   F   F   F
  0.0000000001644525  3.7978100706344149 24.2905400000000000   F   F   F
  0.0000000001644522  3.7978100706344144 20.9289999999999949   F   F   F
 -1.6445000001644474  4.7472625885066453 27.3934999999999960   F   F   F
 -1.6445000001644470  4.7472625885066462 35.5387699999999924   T   T   T
  0.0000000001644538  3.7978100706344167 42.0032699999999934   T   T   T
 -1.6445000001644463  4.7472625885066471 43.6840399999999960   T   T   T
  0.0000000001644536  3.7978100706344158 37.2195399999999950   T   T   T
  0.0000000001644533  3.7978100706344158 33.8579999999999970   T   T   T
 -1.6445000001644468  4.7472625885066471 40.3224999999999980   T   T   T
 -1.6445000001644461  4.7472625885066471 48.4677699999999945   T   T   T
  0.0000000001644542  3.7978100706344176 54.9322699999999955   T   T   T
 -1.6445000001644456  4.7472625885066480 56.6130399999999980   T   T   T
  0.0000000001644536  3.7978100706344176 50.1485399999999970   T   T   T
  0.0000000001644538  3.7978100706344171 46.7869999999999990   T   T   T
 -1.6445000001644459  4.7472625885066480 53.2515000000000001   T   T   T
  3.2889999998355508  1.8989050354596246  9.6807699999999972   F   F   F
  4.9335000001644520  0.9494525175873952 16.1452699999999965   F   F   F
  3.2889999998355517  1.8989050354596253 17.8260399999999990   F   F   F
  4.9335000001644511  0.9494525175873948 11.3615399999999998   F   F   F
  4.9335000001644502  0.9494525175873945  7.9999999999999982   F   F   F
  3.2889999998355508  1.8989050354596260 14.4644999999999992   F   F   F
  3.2889999998355517  1.8989050354596260 22.6097699999999975   F   F   F
  4.9335000001644520  0.9494525175873967 29.0742699999999985   F   F   F
  3.2889999998355521  1.8989050354596269 30.7550400000000010   F   F   F
  4.9335000001644520  0.9494525175873962 24.2905400000000000   F   F   F
  4.9335000001644520  0.9494525175873959 20.9289999999999949   F   F   F
  3.2889999998355521  1.8989050354596273 27.3934999999999960   F   F   F
  3.2889999998355521  1.8989050354596275 35.5387699999999924   T   T   T
  4.9335000001644529  0.9494525175873981 42.0032699999999934   T   T   T
  3.2889999998355530  1.8989050354596282 43.6840399999999960   T   T   T
  4.9335000001644529  0.9494525175873975 37.2195399999999950   T   T   T
  4.9335000001644529  0.9494525175873973 33.8579999999999970   T   T   T
  3.2889999998355526  1.8989050354596286 40.3224999999999980   T   T   T
  3.2889999998355535  1.8989050354596289 48.4677699999999945   T   T   T
  4.9335000001644538  0.9494525175873993 54.9322699999999955   T   T   T
  3.2889999998355535  1.8989050354596297 56.6130399999999980   T   T   T
  4.9335000001644529  0.9494525175873989 50.1485399999999970   T   T   T
  4.9335000001644529  0.9494525175873988 46.7869999999999990   T   T   T
  3.2889999998355535  1.8989050354596297 53.2515000000000001   T   T   T
  1.6444999998355516  4.7472625885066435  9.6807699999999972   F   F   F
  3.2890000001644522  3.7978100706344136 16.1452699999999965   F   F   F
  1.6444999998355523  4.7472625885066435 17.8260399999999990   F   F   F
  3.2890000001644517  3.7978100706344131 11.3615399999999998   F   F   F
  3.2890000001644513  3.7978100706344131  7.9999999999999982   F   F   F
  1.6444999998355518  4.7472625885066444 14.4644999999999992   F   F   F
  1.6444999998355525  4.7472625885066444 22.6097699999999975   F   F   F
  3.2890000001644530  3.7978100706344149 29.0742699999999985   F   F   F
  1.6444999998355530  4.7472625885066453 30.7550400000000010   F   F   F
  3.2890000001644526  3.7978100706344149 24.2905400000000000   F   F   F
  3.2890000001644522  3.7978100706344144 20.9289999999999949   F   F   F
  1.6444999998355527  4.7472625885066453 27.3934999999999960   F   F   F
  1.6444999998355532  4.7472625885066462 35.5387699999999924   T   T   T
  3.2890000001644539  3.7978100706344167 42.0032699999999934   T   T   T
  1.6444999998355538  4.7472625885066471 43.6840399999999960   T   T   T
  3.2890000001644539  3.7978100706344158 37.2195399999999950   T   T   T
  3.2890000001644535  3.7978100706344158 33.8579999999999970   T   T   T
  1.6444999998355534  4.7472625885066471 40.3224999999999980   T   T   T
  1.6444999998355541  4.7472625885066471 48.4677699999999945   T   T   T
  3.2890000001644544  3.7978100706344176 54.9322699999999955   T   T   T
  1.6444999998355545  4.7472625885066480 56.6130399999999980   T   T   T
  3.2890000001644539  3.7978100706344176 50.1485399999999970   T   T   T
  3.2890000001644539  3.7978100706344171 46.7869999999999990   T   T   T
  1.6444999998355543  4.7472625885066480 53.2515000000000001   T   T   T
