Mo C  Mo C  Mo C  Mo C  Mo C  Mo C  Mo C  Mo C  Mo C  Mo C  Mo C  Mo C  Mo C  Mo C  Mo C  Mo C 
 1.0000000000000000
    15.3088352267571270    0.0000000000000000    0.0000000000000000
     0.0000000000000001   10.3900000000000006    0.0000000000000000
     0.0000000000000000    0.0000000000000000   29.9399648529109896
 Mo  C   Mo  C   Mo  C   Mo  C   Mo  C   Mo  C   Mo  C   Mo  C   Mo  C   Mo  C   Mo  C   Mo  C   Mo  C   Mo  C   Mo  C   Mo  C  
   8   4   8   4   8   4   8   4   8   4   8   4   8   4   8   4   8   4   8   4   8   4   8   4   8   4   8   4   8   4   8   4
Selective dynamics
Cartesian
  1.5953086004423189  3.0286849999999994 10.7879929705821986   F   F   F
  2.7797384888970629  0.4311850000000001  9.8586619803881312   F   F   F
  6.6069472955863446  2.1663150000000004  9.8586619803881312   F   F   F
  5.1485982658065508  0.4311850000000003  8.0000000000000000   F   F   F
  0.1369595706625253  4.7638150000000001  8.9293309901940674   F   F   F
  3.9641683773518070  3.0286849999999998  8.9293309901940674   F   F   F
  5.4225174071316005  4.7638150000000001 10.7879929705821986   F   F   F
  1.3213894591172688  2.1663150000000004  7.9999999999999991   F   F   F
  7.3361218104762420  3.8962500000000002 10.7879929705821986   F   F   F
  3.2349938624619092  1.2987500000000001  7.9999999999999991   F   F   F
  7.0622026691511914  1.2987500000000001  8.0000000000000000   F   F   F
  3.5089130037869602  3.8962500000000002 10.7879929705821986   F   F   F
  4.5120066600019060  3.0286849999999990 14.5053169313584611   F   F   F
  5.6964365484566502  0.4311849999999999 13.5759859411643937   F   F   F
  1.8692277417673693  2.1663150000000000 13.5759859411643937   F   F   F
  0.4108787119875739  0.4311850000000000 11.7173239607762625   F   F   F
  3.0536576302221126  4.7638150000000001 12.6466549509703299   F   F   F
  6.8808664369113943  3.0286849999999994 12.6466549509703299   F   F   F
  0.6847978533126243  4.7638150000000001 14.5053169313584611   F   F   F
  4.2380875186768572  2.1663150000000000 11.7173239607762660   F   F   F
  2.5984022566572671  3.8962499999999998 14.5053169313584647   F   F   F
  6.1516919220214978  1.2987499999999998 11.7173239607762625   F   F   F
  2.3244831153322147  1.2987499999999998 11.7173239607762660   F   F   F
  6.4256110633465475  3.8962499999999998 14.5053169313584611   F   F   F
  7.4287047195614964  3.0286849999999990 18.2226408921347272   T   T   T
  0.9587169946376765  0.4311849999999995 17.2933099019406598   T   T   T
  4.7859258013269583  2.1663150000000000 17.2933099019406598   T   T   T
  3.3275767715471645  0.4311849999999997 15.4346479215525250   T   T   T
  5.9703556897817016  4.7638149999999992 16.3639789117465924   T   T   T
  2.1431468830924199  3.0286849999999994 16.3639789117465924   T   T   T
  3.6014959128722150  4.7638149999999992 18.2226408921347236   T   T   T
  7.1547855782364458  2.1663150000000000 15.4346479215525285   T   T   T
  5.5151003162168575  3.8962499999999998 18.2226408921347307   T   T   T
  1.4139723682025220  1.2987499999999994 15.4346479215525285   T   T   T
  5.2411811748918034  1.2987499999999992 15.4346479215525285   T   T   T
  1.6878915095275724  3.8962499999999998 18.2226408921347236   T   T   T
  2.6909851657425206  3.0286849999999981 21.9399648529109896   T   T   T
  3.8754150541972652  0.4311849999999992 21.0106338627169258   T   T   T
  0.0482062475079803  2.1663149999999995 21.0106338627169258   T   T   T
  6.2442748311067540  0.4311849999999993 19.1519718823287910   T   T   T
  1.2326361359627251  4.7638149999999992 20.0813028725228584   T   T   T
  5.0598449426520107  3.0286849999999990 20.0813028725228584   T   T   T
  6.5181939724318001  4.7638149999999992 21.9399648529109896   T   T   T
  2.4170660244174700  2.1663149999999995 19.1519718823287910   T   T   T
  0.7773807623978796  3.8962499999999989 21.9399648529109896   T   T   T
  4.3306704277621089  1.2987499999999990 19.1519718823287910   T   T   T
  0.5034616210728292  1.2987499999999990 19.1519718823287910   T   T   T
  4.6045895690871594  3.8962499999999989 21.9399648529109896   T   T   T
  1.5953086004423189  8.2236849999999997 10.7879929705821986   F   F   F
  2.7797384888970629  5.6261850000000004  9.8586619803881312   F   F   F
  6.6069472955863446  7.3613150000000012  9.8586619803881312   F   F   F
  5.1485982658065508  5.6261850000000004  8.0000000000000000   F   F   F
  0.1369595706625253  9.9588150000000013  8.9293309901940674   F   F   F
  3.9641683773518070  8.2236849999999997  8.9293309901940674   F   F   F
  5.4225174071316005  9.9588150000000013 10.7879929705821986   F   F   F
  1.3213894591172688  7.3613150000000012  7.9999999999999991   F   F   F
  7.3361218104762420  9.0912500000000005 10.7879929705821986   F   F   F
  3.2349938624619092  6.4937500000000004  7.9999999999999991   F   F   F
  7.0622026691511914  6.4937500000000004  8.0000000000000000   F   F   F
  3.5089130037869602  9.0912500000000005 10.7879929705821986   F   F   F
  4.5120066600019060  8.2236849999999997 14.5053169313584611   F   F   F
  5.6964365484566502  5.6261850000000004 13.5759859411643937   F   F   F
  1.8692277417673693  7.3613150000000003 13.5759859411643937   F   F   F
  0.4108787119875740  5.6261850000000004 11.7173239607762625   F   F   F
  3.0536576302221126  9.9588150000000013 12.6466549509703299   F   F   F
  6.8808664369113943  8.2236849999999997 12.6466549509703299   F   F   F
  0.6847978533126243  9.9588150000000013 14.5053169313584611   F   F   F
  4.2380875186768572  7.3613150000000003 11.7173239607762660   F   F   F
  2.5984022566572671  9.0912500000000005 14.5053169313584647   F   F   F
  6.1516919220214978  6.4937500000000004 11.7173239607762625   F   F   F
  2.3244831153322147  6.4937500000000004 11.7173239607762660   F   F   F
  6.4256110633465475  9.0912500000000005 14.5053169313584611   F   F   F
  7.4287047195614964  8.2236849999999997 18.2226408921347272   T   T   T
  0.9587169946376765  5.6261849999999995 17.2933099019406598   T   T   T
  4.7859258013269583  7.3613150000000003 17.2933099019406598   T   T   T
  3.3275767715471645  5.6261849999999995 15.4346479215525250   T   T   T
  5.9703556897817016  9.9588149999999995 16.3639789117465924   T   T   T
  2.1431468830924199  8.2236849999999997 16.3639789117465924   T   T   T
  3.6014959128722150  9.9588149999999995 18.2226408921347236   T   T   T
  7.1547855782364458  7.3613150000000003 15.4346479215525285   T   T   T
  5.5151003162168575  9.0912500000000005 18.2226408921347307   T   T   T
  1.4139723682025220  6.4937499999999995 15.4346479215525285   T   T   T
  5.2411811748918034  6.4937499999999995 15.4346479215525285   T   T   T
  1.6878915095275724  9.0912500000000005 18.2226408921347236   T   T   T
  2.6909851657425206  8.2236849999999979 21.9399648529109896   T   T   T
  3.8754150541972652  5.6261849999999995 21.0106338627169258   T   T   T
  0.0482062475079803  7.3613149999999994 21.0106338627169258   T   T   T
  6.2442748311067540  5.6261849999999995 19.1519718823287910   T   T   T
  1.2326361359627251  9.9588149999999995 20.0813028725228584   T   T   T
  5.0598449426520107  8.2236849999999997 20.0813028725228584   T   T   T
  6.5181939724318001  9.9588149999999995 21.9399648529109896   T   T   T
  2.4170660244174700  7.3613149999999994 19.1519718823287910   T   T   T
  0.7773807623978796  9.0912499999999987 21.9399648529109896   T   T   T
  4.3306704277621089  6.4937499999999995 19.1519718823287910   T   T   T
  0.5034616210728292  6.4937499999999995 19.1519718823287910   T   T   T
  4.6045895690871594  9.0912499999999987 21.9399648529109896   T   T   T
  9.2497262138208818  3.0286849999999994 10.7879929705821986   F   F   F
 10.4341561022756260  0.4311850000000001  9.8586619803881312   F   F   F
 14.2613649089649073  2.1663150000000004  9.8586619803881312   F   F   F
 12.8030158791851143  0.4311850000000003  8.0000000000000000   F   F   F
  7.7913771840410888  4.7638150000000001  8.9293309901940674   F   F   F
 11.6185859907303701  3.0286849999999998  8.9293309901940674   F   F   F
 13.0769350205101631  4.7638150000000001 10.7879929705821986   F   F   F
  8.9758070724958330  2.1663150000000004  7.9999999999999991   F   F   F
 14.9905394238548055  3.8962500000000002 10.7879929705821986   F   F   F
 10.8894114758404719  1.2987500000000001  7.9999999999999991   F   F   F
 14.7166202825297550  1.2987500000000001  8.0000000000000000   F   F   F
 11.1633306171655242  3.8962500000000002 10.7879929705821986   F   F   F
 12.1664242733804695  3.0286849999999990 14.5053169313584611   F   F   F
 13.3508541618352137  0.4311849999999999 13.5759859411643937   F   F   F
  9.5236453551459324  2.1663150000000000 13.5759859411643937   F   F   F
  8.0652963253661376  0.4311850000000000 11.7173239607762625   F   F   F
 10.7080752436006765  4.7638150000000001 12.6466549509703299   F   F   F
 14.5352840502899578  3.0286849999999994 12.6466549509703299   F   F   F
  8.3392154666911882  4.7638150000000001 14.5053169313584611   F   F   F
 11.8925051320554207  2.1663150000000000 11.7173239607762660   F   F   F
 10.2528198700358306  3.8962499999999998 14.5053169313584647   F   F   F
 13.8061095354000614  1.2987499999999998 11.7173239607762625   F   F   F
  9.9789007287107783  1.2987499999999998 11.7173239607762660   F   F   F
 14.0800286767251102  3.8962499999999998 14.5053169313584611   F   F   F
 15.0831223329400608  3.0286849999999990 18.2226408921347272   T   T   T
  8.6131346080162405  0.4311849999999995 17.2933099019406598   T   T   T
 12.4403434147055219  2.1663150000000000 17.2933099019406598   T   T   T
 10.9819943849257271  0.4311849999999997 15.4346479215525250   T   T   T
 13.6247733031602642  4.7638149999999992 16.3639789117465924   T   T   T
  9.7975644964709829  3.0286849999999994 16.3639789117465924   T   T   T
 11.2559135262507795  4.7638149999999992 18.2226408921347236   T   T   T
 14.8092031916150084  2.1663150000000000 15.4346479215525285   T   T   T
 13.1695179295954219  3.8962499999999998 18.2226408921347307   T   T   T
  9.0683899815810847  1.2987499999999994 15.4346479215525285   T   T   T
 12.8955987882703660  1.2987499999999992 15.4346479215525285   T   T   T
  9.3423091229061352  3.8962499999999998 18.2226408921347236   T   T   T
 10.3454027791210841  3.0286849999999981 21.9399648529109896   T   T   T
 11.5298326675758283  0.4311849999999992 21.0106338627169258   T   T   T
  7.7026238608865434  2.1663149999999995 21.0106338627169258   T   T   T
 13.8986924444853166  0.4311849999999993 19.1519718823287910   T   T   T
  8.8870537493412893  4.7638149999999992 20.0813028725228584   T   T   T
 12.7142625560305742  3.0286849999999990 20.0813028725228584   T   T   T
 14.1726115858103636  4.7638149999999992 21.9399648529109896   T   T   T
 10.0714836377960335  2.1663149999999995 19.1519718823287910   T   T   T
  8.4317983757764434  3.8962499999999989 21.9399648529109896   T   T   T
 11.9850880411406724  1.2987499999999990 19.1519718823287910   T   T   T
  8.1578792344513928  1.2987499999999990 19.1519718823287910   T   T   T
 12.2590071824657230  3.8962499999999989 21.9399648529109896   T   T   T
  9.2497262138208818  8.2236849999999997 10.7879929705821986   F   F   F
 10.4341561022756260  5.6261850000000004  9.8586619803881312   F   F   F
 14.2613649089649073  7.3613150000000012  9.8586619803881312   F   F   F
 12.8030158791851143  5.6261850000000004  8.0000000000000000   F   F   F
  7.7913771840410888  9.9588150000000013  8.9293309901940674   F   F   F
 11.6185859907303701  8.2236849999999997  8.9293309901940674   F   F   F
 13.0769350205101631  9.9588150000000013 10.7879929705821986   F   F   F
  8.9758070724958330  7.3613150000000012  7.9999999999999991   F   F   F
 14.9905394238548055  9.0912500000000005 10.7879929705821986   F   F   F
 10.8894114758404719  6.4937500000000004  7.9999999999999991   F   F   F
 14.7166202825297550  6.4937500000000004  8.0000000000000000   F   F   F
 11.1633306171655242  9.0912500000000005 10.7879929705821986   F   F   F
 12.1664242733804695  8.2236849999999997 14.5053169313584611   F   F   F
 13.3508541618352137  5.6261850000000004 13.5759859411643937   F   F   F
  9.5236453551459324  7.3613150000000003 13.5759859411643937   F   F   F
  8.0652963253661376  5.6261850000000004 11.7173239607762625   F   F   F
 10.7080752436006765  9.9588150000000013 12.6466549509703299   F   F   F
 14.5352840502899578  8.2236849999999997 12.6466549509703299   F   F   F
  8.3392154666911882  9.9588150000000013 14.5053169313584611   F   F   F
 11.8925051320554207  7.3613150000000003 11.7173239607762660   F   F   F
 10.2528198700358306  9.0912500000000005 14.5053169313584647   F   F   F
 13.8061095354000614  6.4937500000000004 11.7173239607762625   F   F   F
  9.9789007287107783  6.4937500000000004 11.7173239607762660   F   F   F
 14.0800286767251102  9.0912500000000005 14.5053169313584611   F   F   F
 15.0831223329400608  8.2236849999999997 18.2226408921347272   T   T   T
  8.6131346080162405  5.6261849999999995 17.2933099019406598   T   T   T
 12.4403434147055219  7.3613150000000003 17.2933099019406598   T   T   T
 10.9819943849257271  5.6261849999999995 15.4346479215525250   T   T   T
 13.6247733031602642  9.9588149999999995 16.3639789117465924   T   T   T
  9.7975644964709829  8.2236849999999997 16.3639789117465924   T   T   T
 11.2559135262507795  9.9588149999999995 18.2226408921347236   T   T   T
 14.8092031916150084  7.3613150000000003 15.4346479215525285   T   T   T
 13.1695179295954219  9.0912500000000005 18.2226408921347307   T   T   T
  9.0683899815810847  6.4937499999999995 15.4346479215525285   T   T   T
 12.8955987882703660  6.4937499999999995 15.4346479215525285   T   T   T
  9.3423091229061352  9.0912500000000005 18.2226408921347236   T   T   T
 10.3454027791210841  8.2236849999999979 21.9399648529109896   T   T   T
 11.5298326675758283  5.6261849999999995 21.0106338627169258   T   T   T
  7.7026238608865434  7.3613149999999994 21.0106338627169258   T   T   T
 13.8986924444853166  5.6261849999999995 19.1519718823287910   T   T   T
  8.8870537493412893  9.9588149999999995 20.0813028725228584   T   T   T
 12.7142625560305742  8.2236849999999997 20.0813028725228584   T   T   T
 14.1726115858103636  9.9588149999999995 21.9399648529109896   T   T   T
 10.0714836377960335  7.3613149999999994 19.1519718823287910   T   T   T
  8.4317983757764434  9.0912499999999987 21.9399648529109896   T   T   T
 11.9850880411406724  6.4937499999999995 19.1519718823287910   T   T   T
  8.1578792344513928  6.4937499999999995 19.1519718823287910   T   T   T
 12.2590071824657230  9.0912499999999987 21.9399648529109896   T   T   T
