Mo Se Mo Se Mo Se Mo Se Mo Se Mo Se Mo Se Mo Se Mo Se Mo Se Mo Se Mo Se Mo Se Mo Se Mo Se Mo Se Mo Se Mo Se Mo Se Mo Se Mo Se Mo Se Mo Se Mo Se Mo Se Mo Se Mo Se Mo Se Mo Se Mo Se Mo Se Mo Se Mo Se Mo Se Mo Se Mo Se Mo Se Mo Se Mo Se Mo Se Mo Se Mo Se Mo Se Mo Se Mo Se Mo Se Mo Se Mo Se Mo Se Mo Se Mo Se Mo Se Mo Se Mo Se Mo Se Mo Se Mo Se Mo Se Mo Se Mo Se Mo Se Mo Se Mo Se Mo Se
 1.0000000000000000
    13.1560000000000006    0.0000000000000000    0.0000000000000000
    -6.5779999999999967   11.3934302121880737    0.0000000000000000
     0.0000000000000000    0.0000000000000000   68.6130399999999980
 Mo  Se  Mo  Se  Mo  Se  Mo  Se  Mo  Se  Mo  Se  Mo  Se  Mo  Se  Mo  Se  Mo  Se  Mo  Se  Mo  Se  Mo  Se  Mo  Se  Mo  Se  Mo  Se  Mo  Se  Mo  Se  Mo  Se  Mo  Se  Mo  Se  Mo  Se  Mo  Se  Mo  Se  Mo  Se  Mo  Se  Mo  Se  Mo  Se  Mo  Se  Mo  Se  Mo  Se  Mo  Se  Mo  Se  Mo  Se  Mo  Se  Mo  Se  Mo  Se  Mo  Se  Mo  Se  Mo  Se  Mo  Se  Mo  Se  Mo  Se  Mo  Se  Mo  Se  Mo  Se  Mo  Se  Mo  Se  Mo  Se  Mo  Se  Mo  Se  Mo  Se  Mo  Se  Mo  Se  Mo  Se  Mo  Se  Mo  Se  Mo  Se  Mo  Se  Mo  Se  Mo  Se  Mo  Se  Mo  Se  Mo  Se 
   2   4   2   4   2   4   2   4   2   4   2   4   2   4   2   4   2   4   2   4   2   4   2   4   2   4   2   4   2   4   2   4   2   4   2   4   2   4   2   4   2   4   2   4   2   4   2   4   2   4   2   4   2   4   2   4   2   4   2   4   2   4   2   4   2   4   2   4   2   4   2   4   2   4   2   4   2   4   2   4   2   4   2   4   2   4   2   4   2   4   2   4   2   4   2   4   2   4   2   4   2   4   2   4   2   4   2   4   2   4   2   4   2   4   2   4   2   4   2   4   2   4   2   4   2   4   2   4
Selective dynamics
Cartesian
 -0.0000000001644494  1.8989050354596246 11.6807699999999990   F   F   F
  1.6445000001644514  0.9494525175873952 18.1452699999999965   F   F   F
 -0.0000000001644486  1.8989050354596253 19.8260399999999990   F   F   F
  1.6445000001644507  0.9494525175873948 13.3615399999999980   F   F   F
  1.6445000001644505  0.9494525175873945 10.0000000000000000   F   F   F
 -0.0000000001644492  1.8989050354596260 16.4645000000000010   F   F   F
 -0.0000000001644485  1.8989050354596260 24.6097699999999975   F   F   F
  1.6445000001644519  0.9494525175873967 31.0742699999999985   F   F   F
 -0.0000000001644480  1.8989050354596269 32.7550400000000010   F   F   F
  1.6445000001644516  0.9494525175873962 26.2905400000000000   F   F   F
  1.6445000001644514  0.9494525175873959 22.9289999999999949   F   F   F
 -0.0000000001644481  1.8989050354596273 29.3934999999999960   F   F   F
 -0.0000000001644479  1.8989050354596275 37.5387699999999924   T   T   T
  1.6445000001644530  0.9494525175873981 44.0032699999999934   T   T   T
 -0.0000000001644471  1.8989050354596282 45.6840399999999960   T   T   T
  1.6445000001644527  0.9494525175873975 39.2195399999999950   T   T   T
  1.6445000001644525  0.9494525175873973 35.8579999999999970   T   T   T
 -0.0000000001644475  1.8989050354596286 42.3224999999999980   T   T   T
 -0.0000000001644468  1.8989050354596289 50.4677699999999945   T   T   T
  1.6445000001644534  0.9494525175873993 56.9322699999999955   T   T   T
 -0.0000000001644465  1.8989050354596297 58.6130399999999980   T   T   T
  1.6445000001644527  0.9494525175873989 52.1485399999999970   T   T   T
  1.6445000001644530  0.9494525175873988 48.7869999999999990   T   T   T
 -0.0000000001644467  1.8989050354596297 55.2515000000000001   T   T   T
 -1.6445000001644485  4.7472625885066435 11.6807699999999990   F   F   F
  0.0000000001644522  3.7978100706344136 18.1452699999999965   F   F   F
 -1.6445000001644479  4.7472625885066435 19.8260399999999990   F   F   F
  0.0000000001644516  3.7978100706344131 13.3615399999999980   F   F   F
  0.0000000001644513  3.7978100706344131 10.0000000000000000   F   F   F
 -1.6445000001644483  4.7472625885066444 16.4645000000000010   F   F   F
 -1.6445000001644476  4.7472625885066444 24.6097699999999975   F   F   F
  0.0000000001644527  3.7978100706344149 31.0742699999999985   F   F   F
 -1.6445000001644472  4.7472625885066453 32.7550400000000010   F   F   F
  0.0000000001644525  3.7978100706344149 26.2905400000000000   F   F   F
  0.0000000001644522  3.7978100706344144 22.9289999999999949   F   F   F
 -1.6445000001644474  4.7472625885066453 29.3934999999999960   F   F   F
 -1.6445000001644470  4.7472625885066462 37.5387699999999924   T   T   T
  0.0000000001644538  3.7978100706344167 44.0032699999999934   T   T   T
 -1.6445000001644463  4.7472625885066471 45.6840399999999960   T   T   T
  0.0000000001644536  3.7978100706344158 39.2195399999999950   T   T   T
  0.0000000001644533  3.7978100706344158 35.8579999999999970   T   T   T
 -1.6445000001644468  4.7472625885066471 42.3224999999999980   T   T   T
 -1.6445000001644461  4.7472625885066471 50.4677699999999945   T   T   T
  0.0000000001644542  3.7978100706344176 56.9322699999999955   T   T   T
 -1.6445000001644456  4.7472625885066480 58.6130399999999980   T   T   T
  0.0000000001644536  3.7978100706344176 52.1485399999999970   T   T   T
  0.0000000001644538  3.7978100706344171 48.7869999999999990   T   T   T
 -1.6445000001644459  4.7472625885066480 55.2515000000000001   T   T   T
 -3.2890000001644477  7.5956201415536615 11.6807699999999990   F   F   F
 -1.6444999998355470  6.6461676236814320 18.1452699999999965   F   F   F
 -3.2890000001644468  7.5956201415536624 19.8260399999999990   F   F   F
 -1.6444999998355476  6.6461676236814320 13.3615399999999980   F   F   F
 -1.6444999998355478  6.6461676236814311 10.0000000000000000   F   F   F
 -3.2890000001644477  7.5956201415536633 16.4645000000000010   F   F   F
 -3.2890000001644468  7.5956201415536633 24.6097699999999975   F   F   F
 -1.6444999998355465  6.6461676236814338 31.0742699999999985   F   F   F
 -3.2890000001644464  7.5956201415536633 32.7550400000000010   F   F   F
 -1.6444999998355467  6.6461676236814329 26.2905400000000000   F   F   F
 -1.6444999998355470  6.6461676236814329 22.9289999999999949   F   F   F
 -3.2890000001644464  7.5956201415536642 29.3934999999999960   F   F   F
 -3.2890000001644464  7.5956201415536642 37.5387699999999924   T   T   T
 -1.6444999998355454  6.6461676236814347 44.0032699999999934   T   T   T
 -3.2890000001644455  7.5956201415536651 45.6840399999999960   T   T   T
 -1.6444999998355456  6.6461676236814347 39.2195399999999950   T   T   T
 -1.6444999998355458  6.6461676236814338 35.8579999999999970   T   T   T
 -3.2890000001644459  7.5956201415536651 42.3224999999999980   T   T   T
 -3.2890000001644450  7.5956201415536659 50.4677699999999945   T   T   T
 -1.6444999998355450  6.6461676236814364 56.9322699999999955   T   T   T
 -3.2890000001644450  7.5956201415536668 58.6130399999999980   T   T   T
 -1.6444999998355456  6.6461676236814355 52.1485399999999970   T   T   T
 -1.6444999998355454  6.6461676236814355 48.7869999999999990   T   T   T
 -3.2890000001644450  7.5956201415536668 55.2515000000000001   T   T   T
 -4.9335000001644476 10.4439776946006795 11.6807699999999990   F   F   F
 -3.2889999998355464  9.4945251767284518 18.1452699999999965   F   F   F
 -4.9335000001644467 10.4439776946006813 19.8260399999999990   F   F   F
 -3.2889999998355472  9.4945251767284500 13.3615399999999980   F   F   F
 -3.2889999998355472  9.4945251767284500 10.0000000000000000   F   F   F
 -4.9335000001644467 10.4439776946006813 16.4645000000000010   F   F   F
 -4.9335000001644467 10.4439776946006813 24.6097699999999975   F   F   F
 -3.2889999998355459  9.4945251767284518 31.0742699999999985   F   F   F
 -4.9335000001644458 10.4439776946006830 32.7550400000000010   F   F   F
 -3.2889999998355464  9.4945251767284518 26.2905400000000000   F   F   F
 -3.2889999998355464  9.4945251767284518 22.9289999999999949   F   F   F
 -4.9335000001644458 10.4439776946006830 29.3934999999999960   F   F   F
 -4.9335000001644458 10.4439776946006830 37.5387699999999924   T   T   T
 -3.2889999998355446  9.4945251767284535 44.0032699999999934   T   T   T
 -4.9335000001644449 10.4439776946006830 45.6840399999999960   T   T   T
 -3.2889999998355450  9.4945251767284535 39.2195399999999950   T   T   T
 -3.2889999998355455  9.4945251767284535 35.8579999999999970   T   T   T
 -4.9335000001644449 10.4439776946006848 42.3224999999999980   T   T   T
 -4.9335000001644449 10.4439776946006848 50.4677699999999945   T   T   T
 -3.2889999998355446  9.4945251767284553 56.9322699999999955   T   T   T
 -4.9335000001644440 10.4439776946006848 58.6130399999999980   T   T   T
 -3.2889999998355450  9.4945251767284553 52.1485399999999970   T   T   T
 -3.2889999998355446  9.4945251767284553 48.7869999999999990   T   T   T
 -4.9335000001644449 10.4439776946006848 55.2515000000000001   T   T   T
  3.2889999998355508  1.8989050354596246 11.6807699999999990   F   F   F
  4.9335000001644520  0.9494525175873952 18.1452699999999965   F   F   F
  3.2889999998355517  1.8989050354596253 19.8260399999999990   F   F   F
  4.9335000001644511  0.9494525175873948 13.3615399999999980   F   F   F
  4.9335000001644502  0.9494525175873945 10.0000000000000000   F   F   F
  3.2889999998355508  1.8989050354596260 16.4645000000000010   F   F   F
  3.2889999998355517  1.8989050354596260 24.6097699999999975   F   F   F
  4.9335000001644520  0.9494525175873967 31.0742699999999985   F   F   F
  3.2889999998355521  1.8989050354596269 32.7550400000000010   F   F   F
  4.9335000001644520  0.9494525175873962 26.2905400000000000   F   F   F
  4.9335000001644520  0.9494525175873959 22.9289999999999949   F   F   F
  3.2889999998355521  1.8989050354596273 29.3934999999999960   F   F   F
  3.2889999998355521  1.8989050354596275 37.5387699999999924   T   T   T
  4.9335000001644529  0.9494525175873981 44.0032699999999934   T   T   T
  3.2889999998355530  1.8989050354596282 45.6840399999999960   T   T   T
  4.9335000001644529  0.9494525175873975 39.2195399999999950   T   T   T
  4.9335000001644529  0.9494525175873973 35.8579999999999970   T   T   T
  3.2889999998355526  1.8989050354596286 42.3224999999999980   T   T   T
  3.2889999998355535  1.8989050354596289 50.4677699999999945   T   T   T
  4.9335000001644538  0.9494525175873993 56.9322699999999955   T   T   T
  3.2889999998355535  1.8989050354596297 58.6130399999999980   T   T   T
  4.9335000001644529  0.9494525175873989 52.1485399999999970   T   T   T
  4.9335000001644529  0.9494525175873988 48.7869999999999990   T   T   T
  3.2889999998355535  1.8989050354596297 55.2515000000000001   T   T   T
  1.6444999998355516  4.7472625885066435 11.6807699999999990   F   F   F
  3.2890000001644522  3.7978100706344136 18.1452699999999965   F   F   F
  1.6444999998355523  4.7472625885066435 19.8260399999999990   F   F   F
  3.2890000001644517  3.7978100706344131 13.3615399999999980   F   F   F
  3.2890000001644513  3.7978100706344131 10.0000000000000000   F   F   F
  1.6444999998355518  4.7472625885066444 16.4645000000000010   F   F   F
  1.6444999998355525  4.7472625885066444 24.6097699999999975   F   F   F
  3.2890000001644530  3.7978100706344149 31.0742699999999985   F   F   F
  1.6444999998355530  4.7472625885066453 32.7550400000000010   F   F   F
  3.2890000001644526  3.7978100706344149 26.2905400000000000   F   F   F
  3.2890000001644522  3.7978100706344144 22.9289999999999949   F   F   F
  1.6444999998355527  4.7472625885066453 29.3934999999999960   F   F   F
  1.6444999998355532  4.7472625885066462 37.5387699999999924   T   T   T
  3.2890000001644539  3.7978100706344167 44.0032699999999934   T   T   T
  1.6444999998355538  4.7472625885066471 45.6840399999999960   T   T   T
  3.2890000001644539  3.7978100706344158 39.2195399999999950   T   T   T
  3.2890000001644535  3.7978100706344158 35.8579999999999970   T   T   T
  1.6444999998355534  4.7472625885066471 42.3224999999999980   T   T   T
  1.6444999998355541  4.7472625885066471 50.4677699999999945   T   T   T
  3.2890000001644544  3.7978100706344176 56.9322699999999955   T   T   T
  1.6444999998355545  4.7472625885066480 58.6130399999999980   T   T   T
  3.2890000001644539  3.7978100706344176 52.1485399999999970   T   T   T
  3.2890000001644539  3.7978100706344171 48.7869999999999990   T   T   T
  1.6444999998355543  4.7472625885066480 55.2515000000000001   T   T   T
 -0.0000000001644476  7.5956201415536615 11.6807699999999990   F   F   F
  1.6445000001644532  6.6461676236814320 18.1452699999999965   F   F   F
 -0.0000000001644468  7.5956201415536624 19.8260399999999990   F   F   F
  1.6445000001644525  6.6461676236814320 13.3615399999999980   F   F   F
  1.6445000001644523  6.6461676236814311 10.0000000000000000   F   F   F
 -0.0000000001644474  7.5956201415536633 16.4645000000000010   F   F   F
 -0.0000000001644468  7.5956201415536633 24.6097699999999975   F   F   F
  1.6445000001644536  6.6461676236814338 31.0742699999999985   F   F   F
 -0.0000000001644462  7.5956201415536633 32.7550400000000010   F   F   F
  1.6445000001644534  6.6461676236814329 26.2905400000000000   F   F   F
  1.6445000001644532  6.6461676236814329 22.9289999999999949   F   F   F
 -0.0000000001644464  7.5956201415536642 29.3934999999999960   F   F   F
 -0.0000000001644461  7.5956201415536642 37.5387699999999924   T   T   T
  1.6445000001644547  6.6461676236814347 44.0032699999999934   T   T   T
 -0.0000000001644454  7.5956201415536651 45.6840399999999960   T   T   T
  1.6445000001644545  6.6461676236814347 39.2195399999999950   T   T   T
  1.6445000001644543  6.6461676236814338 35.8579999999999970   T   T   T
 -0.0000000001644458  7.5956201415536651 42.3224999999999980   T   T   T
 -0.0000000001644451  7.5956201415536659 50.4677699999999945   T   T   T
  1.6445000001644552  6.6461676236814364 56.9322699999999955   T   T   T
 -0.0000000001644447  7.5956201415536668 58.6130399999999980   T   T   T
  1.6445000001644545  6.6461676236814355 52.1485399999999970   T   T   T
  1.6445000001644547  6.6461676236814355 48.7869999999999990   T   T   T
 -0.0000000001644449  7.5956201415536668 55.2515000000000001   T   T   T
 -1.6445000001644470 10.4439776946006795 11.6807699999999990   F   F   F
  0.0000000001644538  9.4945251767284518 18.1452699999999965   F   F   F
 -1.6445000001644463 10.4439776946006813 19.8260399999999990   F   F   F
  0.0000000001644531  9.4945251767284500 13.3615399999999980   F   F   F
  0.0000000001644529  9.4945251767284500 10.0000000000000000   F   F   F
 -1.6445000001644468 10.4439776946006813 16.4645000000000010   F   F   F
 -1.6445000001644461 10.4439776946006813 24.6097699999999975   F   F   F
  0.0000000001644542  9.4945251767284518 31.0742699999999985   F   F   F
 -1.6445000001644456 10.4439776946006830 32.7550400000000010   F   F   F
  0.0000000001644540  9.4945251767284518 26.2905400000000000   F   F   F
  0.0000000001644538  9.4945251767284518 22.9289999999999949   F   F   F
 -1.6445000001644459 10.4439776946006830 29.3934999999999960   F   F   F
 -1.6445000001644454 10.4439776946006830 37.5387699999999924   T   T   T
  0.0000000001644553  9.4945251767284535 44.0032699999999934   T   T   T
 -1.6445000001644448 10.4439776946006830 45.6840399999999960   T   T   T
  0.0000000001644551  9.4945251767284535 39.2195399999999950   T   T   T
  0.0000000001644549  9.4945251767284535 35.8579999999999970   T   T   T
 -1.6445000001644452 10.4439776946006848 42.3224999999999980   T   T   T
 -1.6445000001644445 10.4439776946006848 50.4677699999999945   T   T   T
  0.0000000001644558  9.4945251767284553 56.9322699999999955   T   T   T
 -1.6445000001644441 10.4439776946006848 58.6130399999999980   T   T   T
  0.0000000001644551  9.4945251767284553 52.1485399999999970   T   T   T
  0.0000000001644553  9.4945251767284553 48.7869999999999990   T   T   T
 -1.6445000001644443 10.4439776946006848 55.2515000000000001   T   T   T
  6.5779999998355505  1.8989050354596246 11.6807699999999990   F   F   F
  8.2225000001644517  0.9494525175873952 18.1452699999999965   F   F   F
  6.5779999998355514  1.8989050354596253 19.8260399999999990   F   F   F
  8.2225000001644517  0.9494525175873948 13.3615399999999980   F   F   F
  8.2225000001644517  0.9494525175873945 10.0000000000000000   F   F   F
  6.5779999998355514  1.8989050354596260 16.4645000000000010   F   F   F
  6.5779999998355514  1.8989050354596260 24.6097699999999975   F   F   F
  8.2225000001644517  0.9494525175873967 31.0742699999999985   F   F   F
  6.5779999998355523  1.8989050354596269 32.7550400000000010   F   F   F
  8.2225000001644517  0.9494525175873962 26.2905400000000000   F   F   F
  8.2225000001644517  0.9494525175873959 22.9289999999999949   F   F   F
  6.5779999998355523  1.8989050354596273 29.3934999999999960   F   F   F
  6.5779999998355523  1.8989050354596275 37.5387699999999924   T   T   T
  8.2225000001644535  0.9494525175873981 44.0032699999999934   T   T   T
  6.5779999998355532  1.8989050354596282 45.6840399999999960   T   T   T
  8.2225000001644535  0.9494525175873975 39.2195399999999950   T   T   T
  8.2225000001644535  0.9494525175873973 35.8579999999999970   T   T   T
  6.5779999998355532  1.8989050354596286 42.3224999999999980   T   T   T
  6.5779999998355532  1.8989050354596289 50.4677699999999945   T   T   T
  8.2225000001644535  0.9494525175873993 56.9322699999999955   T   T   T
  6.5779999998355541  1.8989050354596297 58.6130399999999980   T   T   T
  8.2225000001644535  0.9494525175873989 52.1485399999999970   T   T   T
  8.2225000001644535  0.9494525175873988 48.7869999999999990   T   T   T
  6.5779999998355532  1.8989050354596297 55.2515000000000001   T   T   T
  4.9334999998355515  4.7472625885066435 11.6807699999999990   F   F   F
  6.5780000001644527  3.7978100706344136 18.1452699999999965   F   F   F
  4.9334999998355524  4.7472625885066435 19.8260399999999990   F   F   F
  6.5780000001644519  3.7978100706344131 13.3615399999999980   F   F   F
  6.5780000001644519  3.7978100706344131 10.0000000000000000   F   F   F
  4.9334999998355524  4.7472625885066444 16.4645000000000010   F   F   F
  4.9334999998355524  4.7472625885066444 24.6097699999999975   F   F   F
  6.5780000001644527  3.7978100706344149 31.0742699999999985   F   F   F
  4.9334999998355533  4.7472625885066453 32.7550400000000010   F   F   F
  6.5780000001644527  3.7978100706344149 26.2905400000000000   F   F   F
  6.5780000001644527  3.7978100706344144 22.9289999999999949   F   F   F
  4.9334999998355533  4.7472625885066453 29.3934999999999960   F   F   F
  4.9334999998355533  4.7472625885066462 37.5387699999999924   T   T   T
  6.5780000001644545  3.7978100706344167 44.0032699999999934   T   T   T
  4.9334999998355542  4.7472625885066471 45.6840399999999960   T   T   T
  6.5780000001644545  3.7978100706344158 39.2195399999999950   T   T   T
  6.5780000001644536  3.7978100706344158 35.8579999999999970   T   T   T
  4.9334999998355542  4.7472625885066471 42.3224999999999980   T   T   T
  4.9334999998355542  4.7472625885066471 50.4677699999999945   T   T   T
  6.5780000001644545  3.7978100706344176 56.9322699999999955   T   T   T
  4.9334999998355551  4.7472625885066480 58.6130399999999980   T   T   T
  6.5780000001644545  3.7978100706344176 52.1485399999999970   T   T   T
  6.5780000001644545  3.7978100706344171 48.7869999999999990   T   T   T
  4.9334999998355542  4.7472625885066480 55.2515000000000001   T   T   T
  3.2889999998355526  7.5956201415536615 11.6807699999999990   F   F   F
  4.9335000001644538  6.6461676236814320 18.1452699999999965   F   F   F
  3.2889999998355535  7.5956201415536624 19.8260399999999990   F   F   F
  4.9335000001644529  6.6461676236814320 13.3615399999999980   F   F   F
  4.9335000001644520  6.6461676236814311 10.0000000000000000   F   F   F
  3.2889999998355526  7.5956201415536633 16.4645000000000010   F   F   F
  3.2889999998355535  7.5956201415536633 24.6097699999999975   F   F   F
  4.9335000001644538  6.6461676236814338 31.0742699999999985   F   F   F
  3.2889999998355539  7.5956201415536633 32.7550400000000010   F   F   F
  4.9335000001644538  6.6461676236814329 26.2905400000000000   F   F   F
  4.9335000001644538  6.6461676236814329 22.9289999999999949   F   F   F
  3.2889999998355539  7.5956201415536642 29.3934999999999960   F   F   F
  3.2889999998355539  7.5956201415536642 37.5387699999999924   T   T   T
  4.9335000001644547  6.6461676236814347 44.0032699999999934   T   T   T
  3.2889999998355548  7.5956201415536651 45.6840399999999960   T   T   T
  4.9335000001644547  6.6461676236814347 39.2195399999999950   T   T   T
  4.9335000001644547  6.6461676236814338 35.8579999999999970   T   T   T
  3.2889999998355544  7.5956201415536651 42.3224999999999980   T   T   T
  3.2889999998355552  7.5956201415536659 50.4677699999999945   T   T   T
  4.9335000001644556  6.6461676236814364 56.9322699999999955   T   T   T
  3.2889999998355552  7.5956201415536668 58.6130399999999980   T   T   T
  4.9335000001644547  6.6461676236814355 52.1485399999999970   T   T   T
  4.9335000001644547  6.6461676236814355 48.7869999999999990   T   T   T
  3.2889999998355552  7.5956201415536668 55.2515000000000001   T   T   T
  1.6444999998355532 10.4439776946006795 11.6807699999999990   F   F   F
  3.2890000001644539  9.4945251767284518 18.1452699999999965   F   F   F
  1.6444999998355538 10.4439776946006813 19.8260399999999990   F   F   F
  3.2890000001644530  9.4945251767284500 13.3615399999999980   F   F   F
  3.2890000001644530  9.4945251767284500 10.0000000000000000   F   F   F
  1.6444999998355534 10.4439776946006813 16.4645000000000010   F   F   F
  1.6444999998355541 10.4439776946006813 24.6097699999999975   F   F   F
  3.2890000001644544  9.4945251767284518 31.0742699999999985   F   F   F
  1.6444999998355545 10.4439776946006830 32.7550400000000010   F   F   F
  3.2890000001644539  9.4945251767284518 26.2905400000000000   F   F   F
  3.2890000001644539  9.4945251767284518 22.9289999999999949   F   F   F
  1.6444999998355543 10.4439776946006830 29.3934999999999960   F   F   F
  1.6444999998355547 10.4439776946006830 37.5387699999999924   T   T   T
  3.2890000001644557  9.4945251767284535 44.0032699999999934   T   T   T
  1.6444999998355554 10.4439776946006830 45.6840399999999960   T   T   T
  3.2890000001644553  9.4945251767284535 39.2195399999999950   T   T   T
  3.2890000001644548  9.4945251767284535 35.8579999999999970   T   T   T
  1.6444999998355549 10.4439776946006848 42.3224999999999980   T   T   T
  1.6444999998355556 10.4439776946006848 50.4677699999999945   T   T   T
  3.2890000001644557  9.4945251767284553 56.9322699999999955   T   T   T
  1.6444999998355561 10.4439776946006848 58.6130399999999980   T   T   T
  3.2890000001644553  9.4945251767284553 52.1485399999999970   T   T   T
  3.2890000001644557  9.4945251767284553 48.7869999999999990   T   T   T
  1.6444999998355558 10.4439776946006848 55.2515000000000001   T   T   T
  9.8669999998355511  1.8989050354596246 11.6807699999999990   F   F   F
 11.5115000001644532  0.9494525175873952 18.1452699999999965   F   F   F
  9.8669999998355529  1.8989050354596253 19.8260399999999990   F   F   F
 11.5115000001644514  0.9494525175873948 13.3615399999999980   F   F   F
 11.5115000001644514  0.9494525175873945 10.0000000000000000   F   F   F
  9.8669999998355511  1.8989050354596260 16.4645000000000010   F   F   F
  9.8669999998355529  1.8989050354596260 24.6097699999999975   F   F   F
 11.5115000001644532  0.9494525175873967 31.0742699999999985   F   F   F
  9.8669999998355529  1.8989050354596269 32.7550400000000010   F   F   F
 11.5115000001644532  0.9494525175873962 26.2905400000000000   F   F   F
 11.5115000001644532  0.9494525175873959 22.9289999999999949   F   F   F
  9.8669999998355529  1.8989050354596273 29.3934999999999960   F   F   F
  9.8669999998355529  1.8989050354596275 37.5387699999999924   T   T   T
 11.5115000001644532  0.9494525175873981 44.0032699999999934   T   T   T
  9.8669999998355529  1.8989050354596282 45.6840399999999960   T   T   T
 11.5115000001644532  0.9494525175873975 39.2195399999999950   T   T   T
 11.5115000001644532  0.9494525175873973 35.8579999999999970   T   T   T
  9.8669999998355529  1.8989050354596286 42.3224999999999980   T   T   T
  9.8669999998355546  1.8989050354596289 50.4677699999999945   T   T   T
 11.5115000001644550  0.9494525175873993 56.9322699999999955   T   T   T
  9.8669999998355546  1.8989050354596297 58.6130399999999980   T   T   T
 11.5115000001644532  0.9494525175873989 52.1485399999999970   T   T   T
 11.5115000001644532  0.9494525175873988 48.7869999999999990   T   T   T
  9.8669999998355546  1.8989050354596297 55.2515000000000001   T   T   T
  8.2224999998355521  4.7472625885066435 11.6807699999999990   F   F   F
  9.8670000001644524  3.7978100706344136 18.1452699999999965   F   F   F
  8.2224999998355539  4.7472625885066435 19.8260399999999990   F   F   F
  9.8670000001644524  3.7978100706344131 13.3615399999999980   F   F   F
  9.8670000001644524  3.7978100706344131 10.0000000000000000   F   F   F
  8.2224999998355521  4.7472625885066444 16.4645000000000010   F   F   F
  8.2224999998355539  4.7472625885066444 24.6097699999999975   F   F   F
  9.8670000001644542  3.7978100706344149 31.0742699999999985   F   F   F
  8.2224999998355539  4.7472625885066453 32.7550400000000010   F   F   F
  9.8670000001644542  3.7978100706344149 26.2905400000000000   F   F   F
  9.8670000001644524  3.7978100706344144 22.9289999999999949   F   F   F
  8.2224999998355539  4.7472625885066453 29.3934999999999960   F   F   F
  8.2224999998355539  4.7472625885066462 37.5387699999999924   T   T   T
  9.8670000001644542  3.7978100706344167 44.0032699999999934   T   T   T
  8.2224999998355539  4.7472625885066471 45.6840399999999960   T   T   T
  9.8670000001644542  3.7978100706344158 39.2195399999999950   T   T   T
  9.8670000001644542  3.7978100706344158 35.8579999999999970   T   T   T
  8.2224999998355539  4.7472625885066471 42.3224999999999980   T   T   T
  8.2224999998355557  4.7472625885066471 50.4677699999999945   T   T   T
  9.8670000001644560  3.7978100706344176 56.9322699999999955   T   T   T
  8.2224999998355557  4.7472625885066480 58.6130399999999980   T   T   T
  9.8670000001644542  3.7978100706344176 52.1485399999999970   T   T   T
  9.8670000001644542  3.7978100706344171 48.7869999999999990   T   T   T
  8.2224999998355557  4.7472625885066480 55.2515000000000001   T   T   T
  6.5779999998355532  7.5956201415536615 11.6807699999999990   F   F   F
  8.2225000001644553  6.6461676236814320 18.1452699999999965   F   F   F
  6.5779999998355541  7.5956201415536624 19.8260399999999990   F   F   F
  8.2225000001644535  6.6461676236814320 13.3615399999999980   F   F   F
  8.2225000001644535  6.6461676236814311 10.0000000000000000   F   F   F
  6.5779999998355541  7.5956201415536633 16.4645000000000010   F   F   F
  6.5779999998355541  7.5956201415536633 24.6097699999999975   F   F   F
  8.2225000001644553  6.6461676236814338 31.0742699999999985   F   F   F
  6.5779999998355549  7.5956201415536633 32.7550400000000010   F   F   F
  8.2225000001644553  6.6461676236814329 26.2905400000000000   F   F   F
  8.2225000001644553  6.6461676236814329 22.9289999999999949   F   F   F
  6.5779999998355549  7.5956201415536642 29.3934999999999960   F   F   F
  6.5779999998355549  7.5956201415536642 37.5387699999999924   T   T   T
  8.2225000001644553  6.6461676236814347 44.0032699999999934   T   T   T
  6.5779999998355558  7.5956201415536651 45.6840399999999960   T   T   T
  8.2225000001644553  6.6461676236814347 39.2195399999999950   T   T   T
  8.2225000001644553  6.6461676236814338 35.8579999999999970   T   T   T
  6.5779999998355558  7.5956201415536651 42.3224999999999980   T   T   T
  6.5779999998355558  7.5956201415536659 50.4677699999999945   T   T   T
  8.2225000001644570  6.6461676236814364 56.9322699999999955   T   T   T
  6.5779999998355567  7.5956201415536668 58.6130399999999980   T   T   T
  8.2225000001644553  6.6461676236814355 52.1485399999999970   T   T   T
  8.2225000001644553  6.6461676236814355 48.7869999999999990   T   T   T
  6.5779999998355558  7.5956201415536668 55.2515000000000001   T   T   T
  4.9334999998355533 10.4439776946006795 11.6807699999999990   F   F   F
  6.5780000001644545  9.4945251767284518 18.1452699999999965   F   F   F
  4.9334999998355542 10.4439776946006813 19.8260399999999990   F   F   F
  6.5780000001644536  9.4945251767284500 13.3615399999999980   F   F   F
  6.5780000001644536  9.4945251767284500 10.0000000000000000   F   F   F
  4.9334999998355542 10.4439776946006813 16.4645000000000010   F   F   F
  4.9334999998355542 10.4439776946006813 24.6097699999999975   F   F   F
  6.5780000001644545  9.4945251767284518 31.0742699999999985   F   F   F
  4.9334999998355551 10.4439776946006830 32.7550400000000010   F   F   F
  6.5780000001644545  9.4945251767284518 26.2905400000000000   F   F   F
  6.5780000001644545  9.4945251767284518 22.9289999999999949   F   F   F
  4.9334999998355551 10.4439776946006830 29.3934999999999960   F   F   F
  4.9334999998355551 10.4439776946006830 37.5387699999999924   T   T   T
  6.5780000001644563  9.4945251767284535 44.0032699999999934   T   T   T
  4.9334999998355560 10.4439776946006830 45.6840399999999960   T   T   T
  6.5780000001644563  9.4945251767284535 39.2195399999999950   T   T   T
  6.5780000001644554  9.4945251767284535 35.8579999999999970   T   T   T
  4.9334999998355560 10.4439776946006848 42.3224999999999980   T   T   T
  4.9334999998355560 10.4439776946006848 50.4677699999999945   T   T   T
  6.5780000001644563  9.4945251767284553 56.9322699999999955   T   T   T
  4.9334999998355569 10.4439776946006848 58.6130399999999980   T   T   T
  6.5780000001644563  9.4945251767284553 52.1485399999999970   T   T   T
  6.5780000001644563  9.4945251767284553 48.7869999999999990   T   T   T
  4.9334999998355560 10.4439776946006848 55.2515000000000001   T   T   T
