Mo N  Mo N  Mo N  Mo N 
 1.0000000000000000
    11.8793939239339981    0.0000000000000000    0.0000000000000007
     2.9698484809834995    8.0000000000000018    2.9698484809834995
     0.0000000000000000    0.0000000000000000   31.8793939239340034
 Mo  N   Mo  N   Mo  N   Mo  N  
  16   8  16   6  16   8  16   8
Selective dynamics
Cartesian
  0.0000000000000000  0.0000000000000000 15.5684659018440641   F   F   F
  2.9698484809834995  0.0000000000000000 12.5986174208605632   F   F   F
  0.0000000000000000  0.0000000000000000 12.5986174208605632   F   F   F
  2.9698484809834995  0.0000000000000000 15.5684659018440641   F   F   F
  4.4547727214752495  6.0000000000000018 14.0835416613523137   F   F   F
  7.4246212024587486  6.0000000000000018 17.0533901423358145   T   T   T
  7.4246212024587486  6.0000000000000018 14.0835416613523137   F   F   F
  4.4547727214752495  6.0000000000000018 17.0533901423358145   T   T   T
  2.9698484809834995  4.0000000000000009 12.5986174208605632   F   F   F
  5.9396969619669990  4.0000000000000009 15.5684659018440605   F   F   F
  2.9698484809834995  4.0000000000000009 15.5684659018440605   F   F   F
  5.9396969619669990  4.0000000000000009 12.5986174208605632   F   F   F
  4.4547727214752495  2.0000000000000004 14.0835416613523137   F   F   F
  1.4849242404917498  2.0000000000000004 11.1136931803688164   F   F   F
  1.4849242404917498  2.0000000000000004 14.0835416613523137   F   F   F
  4.4547727214752495  2.0000000000000004 11.1136931803688164   F   F   F
  1.4849242404917498  0.0000000000000000 11.1136931803688128   F   F   F
  4.4547727214752495  0.0000000000000000 14.0835416613523137   F   F   F
  2.9698484809834995  6.0000000000000018 15.5684659018440641   F   F   F
  5.9396969619669990  6.0000000000000018 12.5986174208605668   F   F   F
  1.4849242404917498  4.0000000000000009 14.0835416613523137   F   F   F
  4.4547727214752495  4.0000000000000009 17.0533901423358145   T   T   T
  2.9698484809834995  2.0000000000000004 12.5986174208605632   F   F   F
  5.9396969619669990  2.0000000000000004 15.5684659018440641   F   F   F
  0.0000000000000000  0.0000000000000000 21.5081628638110658   T   T   T
  2.9698484809834995  0.0000000000000000 18.5383143828275614   T   T   T
  0.0000000000000000  0.0000000000000000 18.5383143828275614   T   T   T
  2.9698484809834995  0.0000000000000000 21.5081628638110658   T   T   T
  4.4547727214752495  6.0000000000000018 20.0232386233193118   T   T   T
  7.4246212024587486  6.0000000000000018 22.9930871043028127   T   T   T
  7.4246212024587486  6.0000000000000018 20.0232386233193118   T   T   T
  4.4547727214752495  6.0000000000000018 22.9930871043028127   T   T   T
  2.9698484809834995  4.0000000000000009 18.5383143828275649   T   T   T
  5.9396969619669990  4.0000000000000009 21.5081628638110622   T   T   T
  2.9698484809834995  4.0000000000000009 21.5081628638110622   T   T   T
  5.9396969619669990  4.0000000000000009 18.5383143828275649   T   T   T
  4.4547727214752495  2.0000000000000004 20.0232386233193154   T   T   T
  1.4849242404917498  2.0000000000000004 17.0533901423358145   T   T   T
  1.4849242404917498  2.0000000000000004 20.0232386233193154   T   T   T
  4.4547727214752495  2.0000000000000004 17.0533901423358145   T   T   T
  1.4849242404917498  0.0000000000000000 17.0533901423358145   T   T   T
  4.4547727214752495  0.0000000000000000 20.0232386233193118   T   T   T
  5.9396969619669990  6.0000000000000018 18.5383143828275649   T   T   T
  1.4849242404917498  4.0000000000000009 20.0232386233193118   T   T   T
  2.9698484809834995  2.0000000000000004 18.5383143828275614   T   T   T
  5.9396969619669990  2.0000000000000004 21.5081628638110622   T   T   T
  5.9396969619669990  0.0000000000000000 15.5684659018440641   F   F   F
  8.9095454429504990  0.0000000000000000 12.5986174208605632   F   F   F
  5.9396969619669990  0.0000000000000000 12.5986174208605632   F   F   F
  8.9095454429504990  0.0000000000000000 15.5684659018440641   F   F   F
 10.3944696834422494  6.0000000000000018 14.0835416613523137   F   F   F
 13.3643181644257467  6.0000000000000018 17.0533901423358145   T   T   T
 13.3643181644257467  6.0000000000000018 14.0835416613523137   F   F   F
 10.3944696834422494  6.0000000000000018 17.0533901423358145   T   T   T
  8.9095454429504990  4.0000000000000009 12.5986174208605632   F   F   F
 11.8793939239339981  4.0000000000000009 15.5684659018440605   F   F   F
  8.9095454429504990  4.0000000000000009 15.5684659018440605   F   F   F
 11.8793939239339981  4.0000000000000009 12.5986174208605632   F   F   F
 10.3944696834422494  2.0000000000000004 14.0835416613523137   F   F   F
  7.4246212024587486  2.0000000000000004 11.1136931803688164   F   F   F
  7.4246212024587486  2.0000000000000004 14.0835416613523137   F   F   F
 10.3944696834422494  2.0000000000000004 11.1136931803688164   F   F   F
  7.4246212024587486  0.0000000000000000 11.1136931803688128   F   F   F
 10.3944696834422494  0.0000000000000000 14.0835416613523137   F   F   F
  8.9095454429504990  6.0000000000000018 15.5684659018440641   F   F   F
 11.8793939239339981  6.0000000000000018 12.5986174208605668   F   F   F
  7.4246212024587486  4.0000000000000009 14.0835416613523137   F   F   F
 10.3944696834422494  4.0000000000000009 17.0533901423358145   T   T   T
  8.9095454429504990  2.0000000000000004 12.5986174208605632   F   F   F
 11.8793939239339981  2.0000000000000004 15.5684659018440641   F   F   F
  5.9396969619669990  0.0000000000000000 21.5081628638110658   T   T   T
  8.9095454429504990  0.0000000000000000 18.5383143828275614   T   T   T
  5.9396969619669990  0.0000000000000000 18.5383143828275614   T   T   T
  8.9095454429504990  0.0000000000000000 21.5081628638110658   T   T   T
 10.3944696834422494  6.0000000000000018 20.0232386233193118   T   T   T
 13.3643181644257467  6.0000000000000018 22.9930871043028127   T   T   T
 13.3643181644257467  6.0000000000000018 20.0232386233193118   T   T   T
 10.3944696834422494  6.0000000000000018 22.9930871043028127   T   T   T
  8.9095454429504990  4.0000000000000009 18.5383143828275649   T   T   T
 11.8793939239339981  4.0000000000000009 21.5081628638110622   T   T   T
  8.9095454429504990  4.0000000000000009 21.5081628638110622   T   T   T
 11.8793939239339981  4.0000000000000009 18.5383143828275649   T   T   T
 10.3944696834422494  2.0000000000000004 20.0232386233193154   T   T   T
  7.4246212024587486  2.0000000000000004 17.0533901423358145   T   T   T
  7.4246212024587486  2.0000000000000004 20.0232386233193154   T   T   T
 10.3944696834422494  2.0000000000000004 17.0533901423358145   T   T   T
  7.4246212024587486  0.0000000000000000 17.0533901423358145   T   T   T
 10.3944696834422494  0.0000000000000000 20.0232386233193118   T   T   T
  8.9095454429504990  6.0000000000000018 21.5081628638110658   T   T   T
 11.8793939239339981  6.0000000000000018 18.5383143828275649   T   T   T
  7.4246212024587486  4.0000000000000009 20.0232386233193118   T   T   T
 10.3944696834422494  4.0000000000000009 22.9930871043028162   T   T   T
  8.9095454429504990  2.0000000000000004 18.5383143828275614   T   T   T
 11.8793939239339981  2.0000000000000004 21.5081628638110622   T   T   T
