Se Mo Se Mo Se Mo Se Mo Se Mo Se Mo Se Mo Se Mo Se Mo Se Mo Se Mo Se Mo Se Mo Se Mo Se Mo Se Mo Se Mo Se Mo Se Mo Se Mo Se Mo Se Mo Se Mo Se Mo Se Mo Se Mo Se Mo Se Mo Se Mo Se Mo Se Mo Se Mo Se Mo Se Mo Se Mo Se Mo Se Mo Se Mo Se Mo Se Mo Se Mo Se Mo Se Mo Se Mo Se Mo Se Mo Se Mo Se Mo Se
 1.0000000000000000
    71.2454999999999927    0.0000000000000000    0.0000000000000000
     0.0000000000000000   17.0901453182821115    0.0000000000000000
     0.0000000000000000    0.0000000000000000   23.3400000000000034
 Se  Mo  Se  Mo  Se  Mo  Se  Mo  Se  Mo  Se  Mo  Se  Mo  Se  Mo  Se  Mo  Se  Mo  Se  Mo  Se  Mo  Se  Mo  Se  Mo  Se  Mo  Se  Mo  Se  Mo  Se  Mo  Se  Mo  Se  Mo  Se  Mo  Se  Mo  Se  Mo  Se  Mo  Se  Mo  Se  Mo  Se  Mo  Se  Mo  Se  Mo  Se  Mo  Se  Mo  Se  Mo  Se  Mo  Se  Mo  Se  Mo  Se  Mo  Se  Mo  Se  Mo  Se  Mo  Se  Mo  Se  Mo  Se  Mo  Se  Mo  Se  Mo  Se  Mo  Se  Mo  Se  Mo  Se  Mo  Se 
  12   1   2   1   2   1   2   1   2   1   2   1   2   1   2   1   2   1   2   1   2   1   2   1   2   1   2   1   2   1   2   1   2   1   2   1   2   1   2   1   2   1   2   1   2   1   2   1   2   1   2   1   2   1   2   1   2   1   2   1   2   1   2   1   2   1   2   1   2   1   2   1   2   1   2   1   2   1   2   1   2   1   2   1   2   1   2   1   2   1   2   1   2   1   2   1  14
Selective dynamics
Cartesian
 21.6445000000000007  0.9494525176823397 13.3400000000000034   T   T   T
 21.6445000000000007  0.9494525176823397 10.0000000000000000   F   F   F
 20.0000000000000000  3.7978100707293589 13.3400000000000034   T   T   T
 20.0000000000000000  3.7978100707293589 10.0000000000000000   F   F   F
 21.6445000000000007  6.6461676237763774 13.3400000000000034   T   T   T
 21.6445000000000007  6.6461676237763774 10.0000000000000000   F   F   F
 20.0000000000000000  9.4945251768233963 13.3400000000000034   T   T   T
 20.0000000000000000  9.4945251768233963 10.0000000000000000   F   F   F
 21.6445000000000007 12.3428827298704160 13.3400000000000034   T   T   T
 21.6445000000000007 12.3428827298704160 10.0000000000000000   F   F   F
 20.0000000000000000 15.1912402829174340 13.3400000000000034   T   T   T
 20.0000000000000000 15.1912402829174340 10.0000000000000000   F   F   F
 23.2890000000000015  0.0000000000000000 11.6700000000000017   T   T   T
 24.9335000000000022  0.9494525176823397 13.3400000000000034   T   T   T
 24.9335000000000022  0.9494525176823397 10.0000000000000000   F   F   F
 24.9335000000000022  2.8483575530470184 11.6700000000000017   T   T   T
 23.2890000000000015  3.7978100707293589 13.3400000000000034   T   T   T
 23.2890000000000015  3.7978100707293589 10.0000000000000000   F   F   F
 23.2890000000000015  5.6967151060940378 11.6700000000000017   T   T   T
 24.9335000000000022  6.6461676237763774 13.3400000000000034   T   T   T
 24.9335000000000022  6.6461676237763774 10.0000000000000000   F   F   F
 24.9335000000000022  8.5450726591410557 11.6700000000000017   T   T   T
 23.2890000000000015  9.4945251768233963 13.3400000000000034   T   T   T
 23.2890000000000015  9.4945251768233963 10.0000000000000000   F   F   F
 23.2890000000000015 11.3934302121880755 11.6700000000000017   T   T   T
 24.9335000000000022 12.3428827298704160 13.3400000000000034   T   T   T
 24.9335000000000022 12.3428827298704160 10.0000000000000000   F   F   F
 24.9335000000000022 14.2417877652350935 11.6700000000000017   T   T   T
 23.2890000000000015 15.1912402829174340 13.3400000000000034   T   T   T
 23.2890000000000015 15.1912402829174340 10.0000000000000000   F   F   F
 26.5779999999999994  0.0000000000000000 11.6700000000000017   T   T   T
 28.2225000000000001  0.9494525176823397 13.3400000000000034   T   T   T
 28.2225000000000001  0.9494525176823397 10.0000000000000000   F   F   F
 28.2225000000000001  2.8483575530470184 11.6700000000000017   T   T   T
 26.5779999999999994  3.7978100707293589 13.3400000000000034   T   T   T
 26.5779999999999994  3.7978100707293589 10.0000000000000000   F   F   F
 26.5779999999999994  5.6967151060940378 11.6700000000000017   T   T   T
 28.2225000000000001  6.6461676237763774 13.3400000000000034   T   T   T
 28.2225000000000001  6.6461676237763774 10.0000000000000000   F   F   F
 28.2225000000000001  8.5450726591410557 11.6700000000000017   T   T   T
 26.5779999999999994  9.4945251768233963 13.3400000000000034   T   T   T
 26.5779999999999994  9.4945251768233963 10.0000000000000000   F   F   F
 26.5779999999999994 11.3934302121880755 11.6700000000000017   T   T   T
 28.2225000000000001 12.3428827298704160 13.3400000000000034   T   T   T
 28.2225000000000001 12.3428827298704160 10.0000000000000000   F   F   F
 28.2225000000000001 14.2417877652350935 11.6700000000000017   T   T   T
 26.5779999999999994 15.1912402829174340 13.3400000000000034   T   T   T
 26.5779999999999994 15.1912402829174340 10.0000000000000000   F   F   F
 29.8670000000000009  0.0000000000000000 11.6700000000000017   T   T   T
 31.5115000000000016  0.9494525176823397 13.3400000000000034   T   T   T
 31.5115000000000016  0.9494525176823397 10.0000000000000000   F   F   F
 31.5115000000000016  2.8483575530470184 11.6700000000000017   T   T   T
 29.8670000000000009  3.7978100707293589 13.3400000000000034   T   T   T
 29.8670000000000009  3.7978100707293589 10.0000000000000000   F   F   F
 29.8670000000000009  5.6967151060940378 11.6700000000000017   T   T   T
 31.5115000000000016  6.6461676237763774 13.3400000000000034   T   T   T
 31.5115000000000016  6.6461676237763774 10.0000000000000000   F   F   F
 31.5115000000000016  8.5450726591410557 11.6700000000000017   T   T   T
 29.8670000000000009  9.4945251768233963 13.3400000000000034   T   T   T
 29.8670000000000009  9.4945251768233963 10.0000000000000000   F   F   F
 29.8670000000000009 11.3934302121880755 11.6700000000000017   T   T   T
 31.5115000000000016 12.3428827298704160 13.3400000000000034   T   T   T
 31.5115000000000016 12.3428827298704160 10.0000000000000000   F   F   F
 31.5115000000000016 14.2417877652350935 11.6700000000000017   T   T   T
 29.8670000000000009 15.1912402829174340 13.3400000000000034   T   T   T
 29.8670000000000009 15.1912402829174340 10.0000000000000000   F   F   F
 33.1559999999999988  0.0000000000000000 11.6700000000000017   T   T   T
 34.8004999999999995  0.9494525176823397 13.3400000000000034   T   T   T
 34.8004999999999995  0.9494525176823397 10.0000000000000000   F   F   F
 34.8004999999999995  2.8483575530470184 11.6700000000000017   T   T   T
 33.1559999999999988  3.7978100707293589 13.3400000000000034   T   T   T
 33.1559999999999988  3.7978100707293589 10.0000000000000000   F   F   F
 33.1559999999999988  5.6967151060940378 11.6700000000000017   T   T   T
 34.8004999999999995  6.6461676237763774 13.3400000000000034   T   T   T
 34.8004999999999995  6.6461676237763774 10.0000000000000000   F   F   F
 34.8004999999999995  8.5450726591410557 11.6700000000000017   T   T   T
 33.1559999999999988  9.4945251768233963 13.3400000000000034   T   T   T
 33.1559999999999988  9.4945251768233963 10.0000000000000000   F   F   F
 33.1559999999999988 11.3934302121880755 11.6700000000000017   T   T   T
 34.8004999999999995 12.3428827298704160 13.3400000000000034   T   T   T
 34.8004999999999995 12.3428827298704160 10.0000000000000000   F   F   F
 34.8004999999999995 14.2417877652350935 11.6700000000000017   T   T   T
 33.1559999999999988 15.1912402829174340 13.3400000000000034   T   T   T
 33.1559999999999988 15.1912402829174340 10.0000000000000000   F   F   F
 36.4450000000000003  0.0000000000000000 11.6700000000000017   T   T   T
 38.0895000000000010  0.9494525176823397 13.3400000000000034   T   T   T
 38.0895000000000010  0.9494525176823397 10.0000000000000000   F   F   F
 38.0895000000000010  2.8483575530470184 11.6700000000000017   T   T   T
 36.4450000000000003  3.7978100707293589 13.3400000000000034   T   T   T
 36.4450000000000003  3.7978100707293589 10.0000000000000000   F   F   F
 36.4450000000000003  5.6967151060940378 11.6700000000000017   T   T   T
 38.0895000000000010  6.6461676237763774 13.3400000000000034   T   T   T
 38.0895000000000010  6.6461676237763774 10.0000000000000000   F   F   F
 38.0895000000000010  8.5450726591410557 11.6700000000000017   T   T   T
 36.4450000000000003  9.4945251768233963 13.3400000000000034   T   T   T
 36.4450000000000003  9.4945251768233963 10.0000000000000000   F   F   F
 36.4450000000000003 11.3934302121880755 11.6700000000000017   T   T   T
 38.0895000000000010 12.3428827298704160 13.3400000000000034   T   T   T
 38.0895000000000010 12.3428827298704160 10.0000000000000000   F   F   F
 38.0895000000000010 14.2417877652350935 11.6700000000000017   T   T   T
 36.4450000000000003 15.1912402829174340 13.3400000000000034   T   T   T
 36.4450000000000003 15.1912402829174340 10.0000000000000000   F   F   F
 39.7340000000000018  0.0000000000000000 11.6700000000000017   T   T   T
 41.3785000000000025  0.9494525176823397 13.3400000000000034   T   T   T
 41.3785000000000025  0.9494525176823397 10.0000000000000000   F   F   F
 41.3785000000000025  2.8483575530470184 11.6700000000000017   T   T   T
 39.7340000000000018  3.7978100707293589 13.3400000000000034   T   T   T
 39.7340000000000018  3.7978100707293589 10.0000000000000000   F   F   F
 39.7340000000000018  5.6967151060940378 11.6700000000000017   T   T   T
 41.3785000000000025  6.6461676237763774 13.3400000000000034   T   T   T
 41.3785000000000025  6.6461676237763774 10.0000000000000000   F   F   F
 41.3785000000000025  8.5450726591410557 11.6700000000000017   T   T   T
 39.7340000000000018  9.4945251768233963 13.3400000000000034   T   T   T
 39.7340000000000018  9.4945251768233963 10.0000000000000000   F   F   F
 39.7340000000000018 11.3934302121880755 11.6700000000000017   T   T   T
 41.3785000000000025 12.3428827298704160 13.3400000000000034   T   T   T
 41.3785000000000025 12.3428827298704160 10.0000000000000000   F   F   F
 41.3785000000000025 14.2417877652350935 11.6700000000000017   T   T   T
 39.7340000000000018 15.1912402829174340 13.3400000000000034   T   T   T
 39.7340000000000018 15.1912402829174340 10.0000000000000000   F   F   F
 43.0229999999999961  0.0000000000000000 11.6700000000000017   T   T   T
 44.6675000000000040  0.9494525176823397 13.3400000000000034   T   T   T
 44.6675000000000040  0.9494525176823397 10.0000000000000000   F   F   F
 44.6675000000000040  2.8483575530470184 11.6700000000000017   T   T   T
 43.0229999999999961  3.7978100707293589 13.3400000000000034   T   T   T
 43.0229999999999961  3.7978100707293589 10.0000000000000000   F   F   F
 43.0229999999999961  5.6967151060940378 11.6700000000000017   T   T   T
 44.6675000000000040  6.6461676237763774 13.3400000000000034   T   T   T
 44.6675000000000040  6.6461676237763774 10.0000000000000000   F   F   F
 44.6675000000000040  8.5450726591410557 11.6700000000000017   T   T   T
 43.0229999999999961  9.4945251768233963 13.3400000000000034   T   T   T
 43.0229999999999961  9.4945251768233963 10.0000000000000000   F   F   F
 43.0229999999999961 11.3934302121880755 11.6700000000000017   T   T   T
 44.6675000000000040 12.3428827298704160 13.3400000000000034   T   T   T
 44.6675000000000040 12.3428827298704160 10.0000000000000000   F   F   F
 44.6675000000000040 14.2417877652350935 11.6700000000000017   T   T   T
 43.0229999999999961 15.1912402829174340 13.3400000000000034   T   T   T
 43.0229999999999961 15.1912402829174340 10.0000000000000000   F   F   F
 46.3119999999999976  0.0000000000000000 11.6700000000000017   T   T   T
 47.9565000000000055  0.9494525176823397 13.3400000000000034   T   T   T
 47.9565000000000055  0.9494525176823397 10.0000000000000000   F   F   F
 47.9565000000000055  2.8483575530470184 11.6700000000000017   T   T   T
 46.3119999999999976  3.7978100707293589 13.3400000000000034   T   T   T
 46.3119999999999976  3.7978100707293589 10.0000000000000000   F   F   F
 46.3119999999999976  5.6967151060940378 11.6700000000000017   T   T   T
 47.9565000000000055  6.6461676237763774 13.3400000000000034   T   T   T
 47.9565000000000055  6.6461676237763774 10.0000000000000000   F   F   F
 47.9565000000000055  8.5450726591410557 11.6700000000000017   T   T   T
 46.3119999999999976  9.4945251768233963 13.3400000000000034   T   T   T
 46.3119999999999976  9.4945251768233963 10.0000000000000000   F   F   F
 46.3119999999999976 11.3934302121880755 11.6700000000000017   T   T   T
 47.9565000000000055 12.3428827298704160 13.3400000000000034   T   T   T
 47.9565000000000055 12.3428827298704160 10.0000000000000000   F   F   F
 47.9565000000000055 14.2417877652350935 11.6700000000000017   T   T   T
 46.3119999999999976 15.1912402829174340 13.3400000000000034   T   T   T
 46.3119999999999976 15.1912402829174340 10.0000000000000000   F   F   F
 51.2455000000000069  0.9494525176823397 13.3400000000000034   T   T   T
 51.2455000000000069  0.9494525176823397 10.0000000000000000   F   F   F
 49.6009999999999991  3.7978100707293589 13.3400000000000034   T   T   T
 49.6009999999999991  3.7978100707293589 10.0000000000000000   F   F   F
 51.2455000000000069  6.6461676237763774 13.3400000000000034   T   T   T
 51.2455000000000069  6.6461676237763774 10.0000000000000000   F   F   F
 49.6009999999999991  9.4945251768233963 13.3400000000000034   T   T   T
 49.6009999999999991  9.4945251768233963 10.0000000000000000   F   F   F
 51.2455000000000069 12.3428827298704160 13.3400000000000034   T   T   T
 51.2455000000000069 12.3428827298704160 10.0000000000000000   F   F   F
 49.6009999999999991 15.1912402829174340 13.3400000000000034   T   T   T
 49.6009999999999991 15.1912402829174340 10.0000000000000000   F   F   F
