Mo B  Mo B  Mo B  Mo B  Mo B  Mo B  Mo B  Mo B  Mo B  Mo B  Mo B  Mo B  Mo B  Mo B  Mo B  Mo B  Mo B  Mo B  Mo B  Au Mo B  Mo B  Mo B  Mo B  Mo B  Mo B  Mo B  Mo B  Mo B  Mo B  Mo B  Mo B  Mo B  Mo B  Mo B  Mo B  Mo B 
 1.0000000000000000
     9.3149999999999995    0.0000000000000000    0.0000000000000000
     0.0000000000000031   50.9099999999999966    0.0000000000000000
     0.0000000000000000    0.0000000000000000   26.8675000000000033
 Mo  B   Mo  B   Mo  B   Mo  B   Mo  B   Mo  B   Mo  B   Mo  B   Mo  B   Mo  B   Mo  B   Mo  B   Mo  B   Mo  B   Mo  B   Mo  B   Mo  B   Mo  B   Mo  B   Au  Mo  B   Mo  B   Mo  B   Mo  B   Mo  B   Mo  B   Mo  B   Mo  B   Mo  B   Mo  B   Mo  B   Mo  B   Mo  B   Mo  B   Mo  B   Mo  B   Mo  B  
   8   8   8   8   8   8   8   8   8   8   8   8   8   8   8   8   8   8   8   8   8   8   8   8   8   8   8   8   8   8   8   8   8   8   8   8   8   8   1   7   8   8   8   8   8   8   8   8   8   8   8   8   8   8   8   8   8   8   8   8   8   8   8   8   8   8   8   8   8   8   8   8   8
Selective dynamics
Cartesian
  0.0000000000000008  9.3844100000000008  9.5525000000000002   F   F   F
  1.5525000000000002  5.1419100000000002  9.5525000000000002   F   F   F
  0.0000000000000002  3.3430900000000010  8.0000000000000000   F   F   F
  0.0000000000000012 16.0705899999999993  9.5525000000000002   F   F   F
  1.5525000000000000  0.8994099999999998  8.0000000000000000   F   F   F
  1.5525000000000004  7.5855899999999998  8.0000000000000000   F   F   F
  1.5525000000000007 11.8280899999999978  9.5525000000000002   F   F   F
  0.0000000000000008 13.6269100000000005  8.0000000000000000   F   F   F
  0.0000000000000007  6.7540600000000000  9.5525000000000002   F   F   F
  1.5525000000000002  2.5115600000000002  9.5525000000000002   F   F   F
  0.0000000000000004  5.9734399999999992  8.0000000000000000   F   F   F
  0.0000000000000004  1.7309400000000015  9.5525000000000002   F   F   F
  1.5525000000000009 15.2390599999999985  8.0000000000000000   F   F   F
  1.5525000000000007 10.2159400000000016  8.0000000000000000   F   F   F
  1.5525000000000009 14.4584400000000031  9.5525000000000002   F   F   F
  0.0000000000000007 10.9965600000000023  8.0000000000000000   F   F   F
  0.0000000000000013  9.3844100000000008 12.6574999999999989   F   F   F
  1.5525000000000009  5.1419100000000002 12.6574999999999989   F   F   F
  0.0000000000000007  3.3430900000000010 11.1050000000000004   F   F   F
  0.0000000000000017 16.0705899999999993 12.6574999999999989   F   F   F
  1.5525000000000004  0.8994100000000000 11.1050000000000004   F   F   F
  1.5525000000000009  7.5855899999999998 11.1050000000000004   F   F   F
  1.5525000000000013 11.8280899999999978 12.6574999999999989   F   F   F
  0.0000000000000013 13.6269100000000005 11.1050000000000004   F   F   F
  0.0000000000000012  6.7540600000000000 12.6574999999999989   F   F   F
  1.5525000000000009  2.5115600000000002 12.6574999999999989   F   F   F
  0.0000000000000009  5.9734399999999992 11.1050000000000004   F   F   F
  0.0000000000000009  1.7309400000000015 12.6574999999999989   F   F   F
  1.5525000000000013 15.2390599999999985 11.1050000000000004   F   F   F
  1.5525000000000011 10.2159400000000016 11.1050000000000004   F   F   F
  1.5525000000000015 14.4584400000000031 12.6574999999999989   F   F   F
  0.0000000000000012 10.9965600000000023 11.1050000000000004   F   F   F
  0.0000000000000018  9.3844100000000008 15.7624999999999993   T   T   T
  1.5525000000000015  5.1419100000000002 15.7624999999999993   T   T   T
  0.0000000000000012  3.3430900000000014 14.2099999999999991   T   T   T
  0.0000000000000022 16.0705899999999993 15.7624999999999993   T   T   T
  1.5525000000000007  0.8994100000000002 14.2099999999999991   T   T   T
  1.5525000000000011  7.5855899999999998 14.2099999999999991   T   T   T
  1.5525000000000020 11.8280899999999978 15.7624999999999993   T   T   T
  0.0000000000000018 13.6269100000000005 14.2099999999999991   T   T   T
  0.0000000000000017  6.7540600000000000 15.7624999999999993   T   T   T
  1.5525000000000015  2.5115600000000007 15.7624999999999993   T   T   T
  0.0000000000000014  5.9734399999999992 14.2099999999999991   T   T   T
  0.0000000000000014  1.7309400000000017 15.7624999999999993   T   T   T
  1.5525000000000015 15.2390599999999985 14.2099999999999991   T   T   T
  1.5525000000000013 10.2159400000000016 14.2099999999999991   T   T   T
  1.5525000000000022 14.4584400000000031 15.7624999999999993   T   T   T
  0.0000000000000017 10.9965600000000023 14.2099999999999991   T   T   T
  0.0000000000000023  9.3844100000000008 18.8674999999999997   T   T   T
  1.5525000000000020  5.1419100000000011 18.8674999999999997   T   T   T
  0.0000000000000017  3.3430900000000014 17.3149999999999977   T   T   T
  0.0000000000000027 16.0705899999999993 18.8674999999999997   T   T   T
  1.5525000000000013  0.8994100000000004 17.3149999999999977   T   T   T
  1.5525000000000018  7.5855899999999998 17.3149999999999977   T   T   T
  1.5525000000000024 11.8280899999999978 18.8674999999999997   T   T   T
  0.0000000000000023 13.6269100000000005 17.3149999999999977   T   T   T
  0.0000000000000022  6.7540600000000008 18.8674999999999997   T   T   T
  1.5525000000000020  2.5115600000000007 18.8674999999999997   T   T   T
  0.0000000000000019  5.9734400000000001 17.3149999999999977   T   T   T
  0.0000000000000019  1.7309400000000019 18.8674999999999997   T   T   T
  1.5525000000000022 15.2390599999999985 17.3149999999999977   T   T   T
  1.5525000000000020 10.2159400000000016 17.3149999999999977   T   T   T
  1.5525000000000027 14.4584400000000031 18.8674999999999997   T   T   T
  0.0000000000000022 10.9965600000000023 17.3149999999999977   T   T   T
  0.0000000000000019 26.3544100000000014  9.5525000000000002   F   F   F
  1.5525000000000013 22.1119099999999982  9.5525000000000002   F   F   F
  0.0000000000000012 20.3130899999999990  8.0000000000000000   F   F   F
  0.0000000000000023 33.0405899999999946  9.5525000000000002   F   F   F
  1.5525000000000011 17.8694099999999985  8.0000000000000000   F   F   F
  1.5525000000000015 24.5555899999999987  8.0000000000000000   F   F   F
  1.5525000000000018 28.7980899999999949  9.5525000000000002   F   F   F
  0.0000000000000019 30.5969100000000012  8.0000000000000000   F   F   F
  0.0000000000000017 23.7240599999999979  9.5525000000000002   F   F   F
  1.5525000000000013 19.4815599999999982  9.5525000000000002   F   F   F
  0.0000000000000014 22.9434399999999989  8.0000000000000000   F   F   F
  0.0000000000000014 18.7009399999999992  9.5525000000000002   F   F   F
  1.5525000000000020 32.2090599999999938  8.0000000000000000   F   F   F
  1.5525000000000018 27.1859400000000022  8.0000000000000000   F   F   F
  1.5525000000000020 31.4284400000000019  9.5525000000000002   F   F   F
  0.0000000000000017 27.9665600000000012  8.0000000000000000   F   F   F
  0.0000000000000024 26.3544100000000014 12.6574999999999989   F   F   F
  1.5525000000000020 22.1119099999999982 12.6574999999999989   F   F   F
  0.0000000000000017 20.3130899999999990 11.1050000000000004   F   F   F
  0.0000000000000028 33.0405899999999946 12.6574999999999989   F   F   F
  1.5525000000000015 17.8694099999999985 11.1050000000000004   F   F   F
  1.5525000000000020 24.5555899999999987 11.1050000000000004   F   F   F
  1.5525000000000024 28.7980899999999949 12.6574999999999989   F   F   F
  0.0000000000000024 30.5969100000000012 11.1050000000000004   F   F   F
  0.0000000000000022 23.7240599999999979 12.6574999999999989   F   F   F
  1.5525000000000020 19.4815599999999982 12.6574999999999989   F   F   F
  0.0000000000000019 22.9434399999999989 11.1050000000000004   F   F   F
  0.0000000000000019 18.7009399999999992 12.6574999999999989   F   F   F
  1.5525000000000024 32.2090599999999938 11.1050000000000004   F   F   F
  1.5525000000000022 27.1859400000000022 11.1050000000000004   F   F   F
  1.5525000000000027 31.4284400000000019 12.6574999999999989   F   F   F
  0.0000000000000022 27.9665600000000012 11.1050000000000004   F   F   F
  0.0000000000000029 26.3544100000000014 15.7624999999999993   T   T   T
  1.5525000000000027 22.1119099999999982 15.7624999999999993   T   T   T
  0.0000000000000022 20.3130899999999990 14.2099999999999991   T   T   T
  0.0000000000000033 33.0405899999999946 15.7624999999999993   T   T   T
  1.5525000000000018 17.8694099999999985 14.2099999999999991   T   T   T
  1.5525000000000022 24.5555899999999987 14.2099999999999991   T   T   T
  1.5525000000000031 28.7980899999999949 15.7624999999999993   T   T   T
  0.0000000000000029 30.5969100000000012 14.2099999999999991   T   T   T
  0.0000000000000027 23.7240599999999979 15.7624999999999993   T   T   T
  1.5525000000000027 19.4815599999999982 15.7624999999999993   T   T   T
  0.0000000000000024 22.9434399999999989 14.2099999999999991   T   T   T
  0.0000000000000024 18.7009399999999992 15.7624999999999993   T   T   T
  1.5525000000000027 32.2090599999999938 14.2099999999999991   T   T   T
  1.5525000000000024 27.1859400000000022 14.2099999999999991   T   T   T
  1.5525000000000033 31.4284400000000019 15.7624999999999993   T   T   T
  0.0000000000000027 27.9665600000000012 14.2099999999999991   T   T   T
  0.0000000000000034 26.3544100000000014 18.8674999999999997   T   T   T
  1.5525000000000031 22.1119100000000017 18.8674999999999997   T   T   T
  0.0000000000000027 20.3130899999999990 17.3149999999999977   T   T   T
  0.0000000000000038 33.0405899999999946 18.8674999999999997   T   T   T
  1.5525000000000024 17.8694099999999985 17.3149999999999977   T   T   T
  1.5525000000000029 24.5555899999999987 17.3149999999999977   T   T   T
  1.5525000000000035 28.7980899999999949 18.8674999999999997   T   T   T
  0.0000000000000034 30.5969100000000012 17.3149999999999977   T   T   T
  0.0000000000000032 23.7240600000000015 18.8674999999999997   T   T   T
  1.5525000000000031 19.4815599999999982 18.8674999999999997   T   T   T
  0.0000000000000029 22.9434399999999989 17.3149999999999977   T   T   T
  0.0000000000000029 18.7009399999999992 18.8674999999999997   T   T   T
  1.5525000000000033 32.2090599999999938 17.3149999999999977   T   T   T
  1.5525000000000031 27.1859400000000022 17.3149999999999977   T   T   T
  1.5525000000000038 31.4284400000000019 18.8674999999999997   T   T   T
  0.0000000000000032 27.9665600000000012 17.3149999999999977   T   T   T
  0.0000000000000029 43.3244100000000003  9.5525000000000002   F   F   F
  1.5525000000000022 39.0819100000000006  9.5525000000000002   F   F   F
  0.0000000000000023 37.2830900000000014  8.0000000000000000   F   F   F
  0.0000000000000033 50.0105899999999934  9.5525000000000002   F   F   F
  1.5525000000000020 34.8394100000000009  8.0000000000000000   F   F   F
  1.5525000000000024 41.5255899999999940  8.0000000000000000   F   F   F
  1.5525000000000027 45.7680899999999937  9.5525000000000002   F   F   F
  0.0000000000000029 47.5669100000000000  8.0000000000000000   F   F   F
  0.0000000000000027 40.6940600000000003  9.5525000000000002   F   F   F
  1.5525000000000022 36.4515600000000006  9.5525000000000002   F   F   F
  0.0000000000000024 39.9134399999999943  8.0000000000000000   F   F   F
  0.0000000000000024 35.6709400000000016  9.5525000000000002   F   F   F
  1.5525000000000029 49.1790599999999927  8.0000000000000000   F   F   F
  1.5525000000000027 44.1559400000000011  8.0000000000000000   F   F   F
  1.5525000000000029 48.3984400000000008  9.5525000000000002   F   F   F
  0.0000000000000028 44.9365600000000001  8.0000000000000000   F   F   F
  0.0000000000000034 43.3244100000000003 12.6574999999999989   F   F   F
  1.5525000000000029 39.0819100000000006 12.6574999999999989   F   F   F
  0.0000000000000028 37.2830900000000014 11.1050000000000004   F   F   F
  0.0000000000000038 50.0105899999999934 12.6574999999999989   F   F   F
  1.5525000000000024 34.8394100000000009 11.1050000000000004   F   F   F
  1.5525000000000029 41.5255899999999940 11.1050000000000004   F   F   F
  1.5525000000000033 45.7680899999999937 12.6574999999999989   F   F   F
  0.0000000000000034 47.5669100000000000 11.1050000000000004   F   F   F
  0.0000000000000032 40.6940600000000003 12.6574999999999989   F   F   F
  1.5525000000000029 36.4515600000000006 12.6574999999999989   F   F   F
  0.0000000000000029 39.9134399999999943 11.1050000000000004   F   F   F
  0.0000000000000029 35.6709400000000016 12.6574999999999989   F   F   F
  1.5525000000000033 49.1790599999999927 11.1050000000000004   F   F   F
  1.5525000000000031 44.1559400000000011 11.1050000000000004   F   F   F
  1.5525000000000035 48.3984400000000008 12.6574999999999989   F   F   F
  0.0000000000000033 44.9365600000000001 11.1050000000000004   F   F   F
  0.0000000000000039 43.3244100000000003 15.7624999999999993   T   T   T
  1.5525000000000035 39.0819100000000006 15.7624999999999993   T   T   T
  0.0000000000000033 37.2830900000000014 14.2099999999999991   T   T   T
  0.0000000000000043 50.0105899999999934 15.7624999999999993   T   T   T
  1.5525000000000027 34.8394100000000009 14.2099999999999991   T   T   T
  1.5525000000000031 41.5255899999999940 14.2099999999999991   T   T   T
  1.5525000000000040 45.7680899999999937 15.7624999999999993   T   T   T
  0.0000000000000039 47.5669100000000000 14.2099999999999991   T   T   T
  0.0000000000000037 40.6940600000000003 15.7624999999999993   T   T   T
  1.5525000000000035 36.4515600000000006 15.7624999999999993   T   T   T
  0.0000000000000034 39.9134399999999943 14.2099999999999991   T   T   T
  0.0000000000000034 35.6709400000000016 15.7624999999999993   T   T   T
  1.5525000000000035 49.1790599999999927 14.2099999999999991   T   T   T
  1.5525000000000033 44.1559400000000011 14.2099999999999991   T   T   T
  1.5525000000000042 48.3984400000000008 15.7624999999999993   T   T   T
  0.0000000000000038 44.9365600000000001 14.2099999999999991   T   T   T
  0.0000000000000044 43.3244100000000003 18.8674999999999997   T   T   T
  1.5525000000000040 39.0819100000000006 18.8674999999999997   T   T   T
  0.0000000000000038 37.2830900000000014 17.3149999999999977   T   T   T
  0.0000000000000048 50.0105899999999934 18.8674999999999997   T   T   T
  1.5525000000000033 34.8394100000000009 17.3149999999999977   T   T   T
  1.5525000000000038 41.5255899999999940 17.3149999999999977   T   T   T
  1.5525000000000044 45.7680899999999937 18.8674999999999997   T   T   T
  0.0000000000000044 47.5669100000000000 17.3149999999999977   T   T   T
  0.0000000000000042 40.6940600000000003 18.8674999999999997   T   T   T
  1.5525000000000040 36.4515600000000006 18.8674999999999997   T   T   T
  0.0000000000000039 39.9134399999999943 17.3149999999999977   T   T   T
  0.0000000000000039 35.6709400000000016 18.8674999999999997   T   T   T
  1.5525000000000042 49.1790599999999927 17.3149999999999977   T   T   T
  1.5525000000000040 44.1559400000000011 17.3149999999999977   T   T   T
  1.5525000000000047 48.3984400000000008 18.8674999999999997   T   T   T
  0.0000000000000042 44.9365600000000001 17.3149999999999977   T   T   T
  3.1050000000000009  9.3844100000000008  9.5525000000000002   F   F   F
  4.6575000000000006  5.1419100000000002  9.5525000000000002   F   F   F
  3.1050000000000000  3.3430900000000010  8.0000000000000000   F   F   F
  3.1050000000000013 16.0705899999999993  9.5525000000000002   F   F   F
  4.6574999999999998  0.8994099999999998  8.0000000000000000   F   F   F
  4.6575000000000006  7.5855899999999998  8.0000000000000000   F   F   F
  4.6575000000000006 11.8280899999999978  9.5525000000000002   F   F   F
  3.1050000000000009 13.6269100000000005  8.0000000000000000   F   F   F
  3.1050000000000004  6.7540600000000000  9.5525000000000002   F   F   F
  4.6575000000000006  2.5115600000000002  9.5525000000000002   F   F   F
  3.1050000000000004  5.9734399999999992  8.0000000000000000   F   F   F
  3.1050000000000004  1.7309400000000015  9.5525000000000002   F   F   F
  4.6575000000000006 15.2390599999999985  8.0000000000000000   F   F   F
  4.6575000000000006 10.2159400000000016  8.0000000000000000   F   F   F
  4.6575000000000006 14.4584400000000031  9.5525000000000002   F   F   F
  3.1050000000000009 10.9965600000000023  8.0000000000000000   F   F   F
  3.1050000000000013  9.3844100000000008 12.6574999999999989   F   F   F
  4.6575000000000006  5.1419100000000002 12.6574999999999989   F   F   F
  3.1050000000000009  3.3430900000000010 11.1050000000000004   F   F   F
  3.1050000000000018 16.0705899999999993 12.6574999999999989   F   F   F
  4.6575000000000006  0.8994100000000000 11.1050000000000004   F   F   F
  4.6575000000000006  7.5855899999999998 11.1050000000000004   F   F   F
  4.6575000000000015 11.8280899999999978 12.6574999999999989   F   F   F
  3.1050000000000013 13.6269100000000005 11.1050000000000004   F   F   F
  3.1050000000000013  6.7540600000000000 12.6574999999999989   F   F   F
  4.6575000000000006  2.5115600000000002 12.6574999999999989   F   F   F
  3.1050000000000009  5.9734399999999992 11.1050000000000004   F   F   F
  3.1050000000000009  1.7309400000000015 12.6574999999999989   F   F   F
  4.6575000000000015 15.2390599999999985 11.1050000000000004   F   F   F
  4.6575000000000006 10.2159400000000016 11.1050000000000004   F   F   F
  4.6575000000000015 14.4584400000000031 12.6574999999999989   F   F   F
  3.1050000000000013 10.9965600000000023 11.1050000000000004   F   F   F
  3.1050000000000018  9.3844100000000008 15.7624999999999993   T   T   T
  4.6575000000000015  5.1419100000000002 15.7624999999999993   T   T   T
  3.1050000000000013  3.3430900000000014 14.2099999999999991   T   T   T
  3.1050000000000022 16.0705899999999993 15.7624999999999993   T   T   T
  4.6575000000000006  0.8994100000000002 14.2099999999999991   T   T   T
  4.6575000000000006  7.5855899999999998 14.2099999999999991   T   T   T
  4.6575000000000024 11.8280899999999978 15.7624999999999993   T   T   T
  3.1050000000000018 13.6269100000000005 14.2099999999999991   T   T   T
  3.1050000000000018  6.7540600000000000 15.7624999999999993   T   T   T
  4.6575000000000015  2.5115600000000007 15.7624999999999993   T   T   T
  3.1050000000000013  5.9734399999999992 14.2099999999999991   T   T   T
  3.1050000000000013  1.7309400000000017 15.7624999999999993   T   T   T
  4.6575000000000015 15.2390599999999985 14.2099999999999991   T   T   T
  4.6575000000000015 10.2159400000000016 14.2099999999999991   T   T   T
  4.6575000000000024 14.4584400000000031 15.7624999999999993   T   T   T
  3.1050000000000018 10.9965600000000023 14.2099999999999991   T   T   T
  3.1050000000000022  9.3844100000000008 18.8674999999999997   T   T   T
  4.6575000000000024  5.1419100000000011 18.8674999999999997   T   T   T
  3.1050000000000018  3.3430900000000014 17.3149999999999977   T   T   T
  3.1050000000000026 16.0705899999999993 18.8674999999999997   T   T   T
  4.6575000000000015  0.8994100000000004 17.3149999999999977   T   T   T
  4.6575000000000015  7.5855899999999998 17.3149999999999977   T   T   T
  4.6575000000000024 11.8280899999999978 18.8674999999999997   T   T   T
  3.1050000000000022 13.6269100000000005 17.3149999999999977   T   T   T
  3.1050000000000022  6.7540600000000008 18.8674999999999997   T   T   T
  4.6575000000000024  2.5115600000000007 18.8674999999999997   T   T   T
  3.1050000000000018  5.9734400000000001 17.3149999999999977   T   T   T
  3.1050000000000018  1.7309400000000019 18.8674999999999997   T   T   T
  4.6575000000000024 15.2390599999999985 17.3149999999999977   T   T   T
  4.6575000000000024 10.2159400000000016 17.3149999999999977   T   T   T
  4.6575000000000024 14.4584400000000031 18.8674999999999997   T   T   T
  3.1050000000000022 10.9965600000000023 17.3149999999999977   T   T   T
  3.1050000000000018 26.3544100000000014  9.5525000000000002   F   F   F
  4.6575000000000006 22.1119099999999982  9.5525000000000002   F   F   F
  3.1050000000000009 20.3130899999999990  8.0000000000000000   F   F   F
  3.1050000000000022 33.0405899999999946  9.5525000000000002   F   F   F
  4.6575000000000006 17.8694099999999985  8.0000000000000000   F   F   F
  4.6575000000000015 24.5555899999999987  8.0000000000000000   F   F   F
  4.6575000000000015 28.7980899999999949  9.5525000000000002   F   F   F
  3.1050000000000018 30.5969100000000012  8.0000000000000000   F   F   F
  3.1050000000000013 23.7240599999999979  9.5525000000000002   F   F   F
  4.6575000000000006 19.4815599999999982  9.5525000000000002   F   F   F
  3.1050000000000013 22.9434399999999989  8.0000000000000000   F   F   F
  3.1050000000000013 18.7009399999999992  9.5525000000000002   F   F   F
  4.6575000000000015 32.2090599999999938  8.0000000000000000   F   F   F
  4.6575000000000015 27.1859400000000022  8.0000000000000000   F   F   F
  4.6575000000000015 31.4284400000000019  9.5525000000000002   F   F   F
  3.1050000000000018 27.9665600000000012  8.0000000000000000   F   F   F
  3.1050000000000022 26.3544100000000014 12.6574999999999989   F   F   F
  4.6575000000000015 22.1119099999999982 12.6574999999999989   F   F   F
  3.1050000000000018 20.3130899999999990 11.1050000000000004   F   F   F
  3.1050000000000026 33.0405899999999946 12.6574999999999989   F   F   F
  4.6575000000000015 17.8694099999999985 11.1050000000000004   F   F   F
  4.6575000000000015 24.5555899999999987 11.1050000000000004   F   F   F
  4.6575000000000024 28.7980899999999949 12.6574999999999989   F   F   F
  3.1050000000000022 30.5969100000000012 11.1050000000000004   F   F   F
  3.1050000000000022 23.7240599999999979 12.6574999999999989   F   F   F
  4.6575000000000015 19.4815599999999982 12.6574999999999989   F   F   F
  3.1050000000000018 22.9434399999999989 11.1050000000000004   F   F   F
  3.1050000000000018 18.7009399999999992 12.6574999999999989   F   F   F
  4.6575000000000024 32.2090599999999938 11.1050000000000004   F   F   F
  4.6575000000000024 27.1859400000000022 11.1050000000000004   F   F   F
  4.6575000000000024 31.4284400000000019 12.6574999999999989   F   F   F
  3.1050000000000022 27.9665600000000012 11.1050000000000004   F   F   F
  3.1050000000000026 26.3544100000000014 15.7624999999999993   T   T   T
  4.6575000000000024 22.1119099999999982 15.7624999999999993   T   T   T
  3.1050000000000022 20.3130899999999990 14.2099999999999991   T   T   T
  3.1050000000000031 33.0405899999999946 15.7624999999999993   T   T   T
  4.6575000000000015 17.8694099999999985 14.2099999999999991   T   T   T
  4.6575000000000024 24.5555899999999987 14.2099999999999991   T   T   T
  4.6575000000000024 28.7980899999999949 15.7624999999999993   T   T   T
  3.1050000000000026 30.5969100000000012 14.2099999999999991   T   T   T
  3.1050000000000026 23.7240599999999979 15.7624999999999993   T   T   T
  4.6575000000000024 19.4815599999999982 15.7624999999999993   T   T   T
  3.1050000000000022 22.9434399999999989 14.2099999999999991   T   T   T
  3.1050000000000022 18.7009399999999992 15.7624999999999993   T   T   T
  4.6575000000000024 32.2090599999999938 14.2099999999999991   T   T   T
  4.6575000000000024 27.1859400000000022 14.2099999999999991   T   T   T
  4.6575000000000033 31.4284400000000019 15.7624999999999993   T   T   T
  3.1050000000000026 27.9665600000000012 14.2099999999999991   T   T   T
  3.1050000000000031 26.3544100000000014 18.8674999999999997   T   T   T
  4.6575000000000024 22.1119100000000017 18.8674999999999997   T   T   T
  3.1050000000000026 20.3130899999999990 17.3149999999999977   T   T   T
  3.1050000000000035 33.0405899999999946 18.8674999999999997   T   T   T
  4.6575000000000024 17.8694099999999985 17.3149999999999977   T   T   T
  4.6575000000000024 24.5555899999999987 17.3149999999999977   T   T   T
  4.6575000000000033 28.7980899999999949 18.8674999999999997   T   T   T
  3.1050000000000031 30.5969100000000012 17.3149999999999977   T   T   T
  3.1050000000000031 23.7240600000000015 18.8674999999999997   T   T   T
  4.6575000000000024 19.4815599999999982 18.8674999999999997   T   T   T
  3.1050000000000026 22.9434399999999989 17.3149999999999977   T   T   T
  3.1050000000000026 18.7009399999999992 18.8674999999999997   T   T   T
  4.6575000000000033 32.2090599999999938 17.3149999999999977   T   T   T
  4.6575000000000024 27.1859400000000022 17.3149999999999977   T   T   T
  4.6575000000000033 31.4284400000000019 18.8674999999999997   T   T   T
  3.1050000000000031 27.9665600000000012 17.3149999999999977   T   T   T
  3.1050000000000031 43.3244100000000003  9.5525000000000002   F   F   F
  4.6575000000000024 39.0819100000000006  9.5525000000000002   F   F   F
  3.1050000000000022 37.2830900000000014  8.0000000000000000   F   F   F
  3.1050000000000035 50.0105899999999934  9.5525000000000002   F   F   F
  4.6575000000000024 34.8394100000000009  8.0000000000000000   F   F   F
  4.6575000000000024 41.5255899999999940  8.0000000000000000   F   F   F
  4.6575000000000024 45.7680899999999937  9.5525000000000002   F   F   F
  3.1050000000000031 47.5669100000000000  8.0000000000000000   F   F   F
  3.1050000000000026 40.6940600000000003  9.5525000000000002   F   F   F
  4.6575000000000024 36.4515600000000006  9.5525000000000002   F   F   F
  3.1050000000000026 39.9134399999999943  8.0000000000000000   F   F   F
  3.1050000000000026 35.6709400000000016  9.5525000000000002   F   F   F
  4.6575000000000033 49.1790599999999927  8.0000000000000000   F   F   F
  4.6575000000000024 44.1559400000000011  8.0000000000000000   F   F   F
  4.6575000000000033 48.3984400000000008  9.5525000000000002   F   F   F
  3.1050000000000031 44.9365600000000001  8.0000000000000000   F   F   F
  3.1050000000000035 43.3244100000000003 12.6574999999999989   F   F   F
  4.6575000000000033 39.0819100000000006 12.6574999999999989   F   F   F
  3.1050000000000031 37.2830900000000014 11.1050000000000004   F   F   F
  3.1050000000000040 50.0105899999999934 12.6574999999999989   F   F   F
  4.6575000000000024 34.8394100000000009 11.1050000000000004   F   F   F
  4.6575000000000033 41.5255899999999940 11.1050000000000004   F   F   F
  4.6575000000000033 45.7680899999999937 12.6574999999999989   F   F   F
  3.1050000000000035 47.5669100000000000 11.1050000000000004   F   F   F
  3.1050000000000035 40.6940600000000003 12.6574999999999989   F   F   F
  4.6575000000000033 36.4515600000000006 12.6574999999999989   F   F   F
  3.1050000000000031 39.9134399999999943 11.1050000000000004   F   F   F
  3.1050000000000031 35.6709400000000016 12.6574999999999989   F   F   F
  4.6575000000000033 49.1790599999999927 11.1050000000000004   F   F   F
  4.6575000000000033 44.1559400000000011 11.1050000000000004   F   F   F
  4.6575000000000042 48.3984400000000008 12.6574999999999989   F   F   F
  3.1050000000000035 44.9365600000000001 11.1050000000000004   F   F   F
  3.1050000000000040 43.3244100000000003 15.7624999999999993   T   T   T
  4.6575000000000042 39.0819100000000006 15.7624999999999993   T   T   T
  3.1050000000000035 37.2830900000000014 14.2099999999999991   T   T   T
  3.1050000000000044 50.0105899999999934 15.7624999999999993   T   T   T
  4.6575000000000024 34.8394100000000009 14.2099999999999991   T   T   T
  4.6575000000000033 41.5255899999999940 14.2099999999999991   T   T   T
  4.6575000000000042 45.7680899999999937 15.7624999999999993   T   T   T
  3.1050000000000040 47.5669100000000000 14.2099999999999991   T   T   T
  3.1050000000000040 40.6940600000000003 15.7624999999999993   T   T   T
  4.6575000000000042 36.4515600000000006 15.7624999999999993   T   T   T
  3.1050000000000035 39.9134399999999943 14.2099999999999991   T   T   T
  3.1050000000000035 35.6709400000000016 15.7624999999999993   T   T   T
  4.6575000000000042 49.1790599999999927 14.2099999999999991   T   T   T
  4.6575000000000033 44.1559400000000011 14.2099999999999991   T   T   T
  4.6575000000000042 48.3984400000000008 15.7624999999999993   T   T   T
  3.1050000000000040 44.9365600000000001 14.2099999999999991   T   T   T
  3.1050000000000044 43.3244100000000003 18.8674999999999997   T   T   T
  4.6575000000000042 39.0819100000000006 18.8674999999999997   T   T   T
  3.1050000000000040 37.2830900000000014 17.3149999999999977   T   T   T
  3.1050000000000049 50.0105899999999934 18.8674999999999997   T   T   T
  4.6575000000000033 34.8394100000000009 17.3149999999999977   T   T   T
  4.6575000000000042 41.5255899999999940 17.3149999999999977   T   T   T
  4.6575000000000042 45.7680899999999937 18.8674999999999997   T   T   T
  3.1050000000000044 47.5669100000000000 17.3149999999999977   T   T   T
  3.1050000000000044 40.6940600000000003 18.8674999999999997   T   T   T
  4.6575000000000042 36.4515600000000006 18.8674999999999997   T   T   T
  3.1050000000000040 39.9134399999999943 17.3149999999999977   T   T   T
  3.1050000000000040 35.6709400000000016 18.8674999999999997   T   T   T
  4.6575000000000042 49.1790599999999927 17.3149999999999977   T   T   T
  4.6575000000000042 44.1559400000000011 17.3149999999999977   T   T   T
  4.6575000000000051 48.3984400000000008 18.8674999999999997   T   T   T
  3.1050000000000044 44.9365600000000001 17.3149999999999977   T   T   T
  6.2100000000000009  9.3844100000000008  9.5525000000000002   F   F   F
  7.7625000000000002  5.1419100000000002  9.5525000000000002   F   F   F
  6.2100000000000000  3.3430900000000010  8.0000000000000000   F   F   F
  6.2100000000000009 16.0705899999999993  9.5525000000000002   F   F   F
  7.7625000000000002  0.8994099999999998  8.0000000000000000   F   F   F
  7.7625000000000002  7.5855899999999998  8.0000000000000000   F   F   F
  7.7625000000000011 11.8280899999999978  9.5525000000000002   F   F   F
  6.2100000000000009 13.6269100000000005  8.0000000000000000   F   F   F
  6.2100000000000009  6.7540600000000000  9.5525000000000002   F   F   F
  7.7625000000000002  2.5115600000000002  9.5525000000000002   F   F   F
  6.2100000000000000  5.9734399999999992  8.0000000000000000   F   F   F
  6.2100000000000000  1.7309400000000015  9.5525000000000002   F   F   F
  7.7625000000000011 15.2390599999999985  8.0000000000000000   F   F   F
  7.7625000000000011 10.2159400000000016  8.0000000000000000   F   F   F
  7.7625000000000011 14.4584400000000031  9.5525000000000002   F   F   F
  6.2100000000000009 10.9965600000000023  8.0000000000000000   F   F   F
  6.2100000000000009  9.3844100000000008 12.6574999999999989   F   F   F
  7.7625000000000011  5.1419100000000002 12.6574999999999989   F   F   F
  6.2100000000000009  3.3430900000000010 11.1050000000000004   F   F   F
  6.2100000000000017 16.0705899999999993 12.6574999999999989   F   F   F
  7.7625000000000002  0.8994100000000000 11.1050000000000004   F   F   F
  7.7625000000000011  7.5855899999999998 11.1050000000000004   F   F   F
  7.7625000000000011 11.8280899999999978 12.6574999999999989   F   F   F
  6.2100000000000017 13.6269100000000005 11.1050000000000004   F   F   F
  6.2100000000000009  6.7540600000000000 12.6574999999999989   F   F   F
  7.7625000000000011  2.5115600000000002 12.6574999999999989   F   F   F
  6.2100000000000009  5.9734399999999992 11.1050000000000004   F   F   F
  6.2100000000000009  1.7309400000000015 12.6574999999999989   F   F   F
  7.7625000000000011 15.2390599999999985 11.1050000000000004   F   F   F
  7.7625000000000011 10.2159400000000016 11.1050000000000004   F   F   F
  7.7625000000000011 14.4584400000000031 12.6574999999999989   F   F   F
  6.2100000000000009 10.9965600000000023 11.1050000000000004   F   F   F
  6.2100000000000017  9.3844100000000008 15.7624999999999993   T   T   T
  7.7625000000000011  5.1419100000000002 15.7624999999999993   T   T   T
  6.2100000000000009  3.3430900000000014 14.2099999999999991   T   T   T
  6.2100000000000026 16.0705899999999993 15.7624999999999993   T   T   T
  7.7625000000000011  0.8994100000000002 14.2099999999999991   T   T   T
  7.7625000000000011  7.5855899999999998 14.2099999999999991   T   T   T
  7.7625000000000020 11.8280899999999978 15.7624999999999993   T   T   T
  6.2100000000000017 13.6269100000000005 14.2099999999999991   T   T   T
  6.2100000000000017  6.7540600000000000 15.7624999999999993   T   T   T
  7.7625000000000011  2.5115600000000007 15.7624999999999993   T   T   T
  6.2100000000000017  5.9734399999999992 14.2099999999999991   T   T   T
  6.2100000000000017  1.7309400000000017 15.7624999999999993   T   T   T
  7.7625000000000011 15.2390599999999985 14.2099999999999991   T   T   T
  7.7625000000000011 10.2159400000000016 14.2099999999999991   T   T   T
  7.7625000000000020 14.4584400000000031 15.7624999999999993   T   T   T
  6.2100000000000017 10.9965600000000023 14.2099999999999991   T   T   T
  6.2100000000000026  9.3844100000000008 18.8674999999999997   T   T   T
  7.7625000000000020  5.1419100000000011 18.8674999999999997   T   T   T
  6.2100000000000017  3.3430900000000014 17.3149999999999977   T   T   T
  6.2100000000000026 16.0705899999999993 18.8674999999999997   T   T   T
  7.7625000000000011  0.8994100000000004 17.3149999999999977   T   T   T
  7.7625000000000020  7.5855899999999998 17.3149999999999977   T   T   T
  7.7625000000000028 11.8280899999999978 18.8674999999999997   T   T   T
  6.2100000000000026 13.6269100000000005 17.3149999999999977   T   T   T
  6.2100000000000017  6.7540600000000008 18.8674999999999997   T   T   T
  7.7625000000000020  2.5115600000000007 18.8674999999999997   T   T   T
  6.2100000000000017  5.9734400000000001 17.3149999999999977   T   T   T
  6.2100000000000017  1.7309400000000019 18.8674999999999997   T   T   T
  7.7625000000000020 15.2390599999999985 17.3149999999999977   T   T   T
  7.7625000000000020 10.2159400000000016 17.3149999999999977   T   T   T
  7.7625000000000028 14.4584400000000031 18.8674999999999997   T   T   T
  6.2100000000000017 10.9965600000000023 17.3149999999999977   T   T   T
  6.2100000000000017 26.3544100000000014  9.5525000000000002   F   F   F
  7.7625000000000011 22.1119099999999982  9.5525000000000002   F   F   F
  6.2100000000000009 20.3130899999999990  8.0000000000000000   F   F   F
  6.2100000000000017 33.0405899999999946  9.5525000000000002   F   F   F
  7.7625000000000011 17.8694099999999985  8.0000000000000000   F   F   F
  7.7625000000000011 24.5555899999999987  8.0000000000000000   F   F   F
  7.7625000000000011 28.7980899999999949  9.5525000000000002   F   F   F
  6.2100000000000017 30.5969100000000012  8.0000000000000000   F   F   F
  6.2100000000000017 23.7240599999999979  9.5525000000000002   F   F   F
  7.7625000000000011 19.4815599999999982  9.5525000000000002   F   F   F
  6.2100000000000009 22.9434399999999989  8.0000000000000000   F   F   F
  6.2100000000000009 18.7009399999999992  9.5525000000000002   F   F   F
  7.7625000000000020 32.2090599999999938  8.0000000000000000   F   F   F
  7.7625000000000011 27.1859400000000022  8.0000000000000000   F   F   F
  7.7625000000000020 31.4284400000000019  9.5525000000000002   F   F   F
  6.2100000000000017 27.9665600000000012  8.0000000000000000   F   F   F
  6.2100000000000017 26.3544100000000014 12.6574999999999989   F   F   F
  7.7625000000000020 22.1119099999999982 12.6574999999999989   F   F   F
  6.2100000000000017 20.3130899999999990 11.1050000000000004   F   F   F
  6.2100000000000026 33.0405899999999946 12.6574999999999989   F   F   F
  7.7625000000000011 17.8694099999999985 11.1050000000000004   F   F   F
  7.7625000000000020 24.5555899999999987 11.1050000000000004   F   F   F
  7.7625000000000020 28.7980899999999949 12.6574999999999989   F   F   F
  6.2100000000000026 30.5969100000000012 11.1050000000000004   F   F   F
  6.2100000000000017 23.7240599999999979 12.6574999999999989   F   F   F
  7.7625000000000020 19.4815599999999982 12.6574999999999989   F   F   F
  6.2100000000000017 22.9434399999999989 11.1050000000000004   F   F   F
  6.2100000000000017 18.7009399999999992 12.6574999999999989   F   F   F
  7.7625000000000020 32.2090599999999938 11.1050000000000004   F   F   F
  7.7625000000000020 27.1859400000000022 11.1050000000000004   F   F   F
  7.7625000000000028 31.4284400000000019 12.6574999999999989   F   F   F
  6.2100000000000017 27.9665600000000012 11.1050000000000004   F   F   F
  6.2100000000000026 26.3544100000000014 15.7624999999999993   T   T   T
  7.7625000000000028 22.1119099999999982 15.7624999999999993   T   T   T
  6.2100000000000017 20.3130899999999990 14.2099999999999991   T   T   T
  6.2100000000000035 33.0405899999999946 15.7624999999999993   T   T   T
  7.7625000000000011 17.8694099999999985 14.2099999999999991   T   T   T
  7.7625000000000020 24.5555899999999987 14.2099999999999991   T   T   T
  7.7625000000000028 28.7980899999999949 15.7624999999999993   T   T   T
  6.2100000000000026 30.5969100000000012 14.2099999999999991   T   T   T
  6.2100000000000026 23.7240599999999979 15.7624999999999993   T   T   T
  7.7625000000000028 19.4815599999999982 15.7624999999999993   T   T   T
  6.2100000000000026 22.9434399999999989 14.2099999999999991   T   T   T
  6.2100000000000026 18.7009399999999992 15.7624999999999993   T   T   T
  7.7625000000000028 32.2090599999999938 14.2099999999999991   T   T   T
  7.7625000000000020 27.1859400000000022 14.2099999999999991   T   T   T
  7.7625000000000028 31.4284400000000019 15.7624999999999993   T   T   T
  6.2100000000000026 27.9665600000000012 14.2099999999999991   T   T   T
  6.2100000000000035 26.3544100000000014 18.8674999999999997   T   T   T
  7.7625000000000028 22.1119100000000017 18.8674999999999997   T   T   T
  6.2100000000000026 20.3130899999999990 17.3149999999999977   T   T   T
  6.2100000000000035 33.0405899999999946 18.8674999999999997   T   T   T
  7.7625000000000020 17.8694099999999985 17.3149999999999977   T   T   T
  7.7625000000000028 24.5555899999999987 17.3149999999999977   T   T   T
  7.7625000000000028 28.7980899999999949 18.8674999999999997   T   T   T
  6.2100000000000035 30.5969100000000012 17.3149999999999977   T   T   T
  6.2100000000000026 23.7240600000000015 18.8674999999999997   T   T   T
  7.7625000000000028 19.4815599999999982 18.8674999999999997   T   T   T
  6.2100000000000026 22.9434399999999989 17.3149999999999977   T   T   T
  6.2100000000000026 18.7009399999999992 18.8674999999999997   T   T   T
  7.7625000000000028 32.2090599999999938 17.3149999999999977   T   T   T
  7.7625000000000028 27.1859400000000022 17.3149999999999977   T   T   T
  7.7625000000000037 31.4284400000000019 18.8674999999999997   T   T   T
  6.2100000000000026 27.9665600000000012 17.3149999999999977   T   T   T
  6.2100000000000026 43.3244100000000003  9.5525000000000002   F   F   F
  7.7625000000000020 39.0819100000000006  9.5525000000000002   F   F   F
  6.2100000000000017 37.2830900000000014  8.0000000000000000   F   F   F
  6.2100000000000026 50.0105899999999934  9.5525000000000002   F   F   F
  7.7625000000000020 34.8394100000000009  8.0000000000000000   F   F   F
  7.7625000000000020 41.5255899999999940  8.0000000000000000   F   F   F
  7.7625000000000028 45.7680899999999937  9.5525000000000002   F   F   F
  6.2100000000000026 47.5669100000000000  8.0000000000000000   F   F   F
  6.2100000000000026 40.6940600000000003  9.5525000000000002   F   F   F
  7.7625000000000020 36.4515600000000006  9.5525000000000002   F   F   F
  6.2100000000000017 39.9134399999999943  8.0000000000000000   F   F   F
  6.2100000000000017 35.6709400000000016  9.5525000000000002   F   F   F
  7.7625000000000028 49.1790599999999927  8.0000000000000000   F   F   F
  7.7625000000000028 44.1559400000000011  8.0000000000000000   F   F   F
  7.7625000000000028 48.3984400000000008  9.5525000000000002   F   F   F
  6.2100000000000026 44.9365600000000001  8.0000000000000000   F   F   F
  6.2100000000000026 43.3244100000000003 12.6574999999999989   F   F   F
  7.7625000000000028 39.0819100000000006 12.6574999999999989   F   F   F
  6.2100000000000026 37.2830900000000014 11.1050000000000004   F   F   F
  6.2100000000000035 50.0105899999999934 12.6574999999999989   F   F   F
  7.7625000000000020 34.8394100000000009 11.1050000000000004   F   F   F
  7.7625000000000028 41.5255899999999940 11.1050000000000004   F   F   F
  7.7625000000000028 45.7680899999999937 12.6574999999999989   F   F   F
  6.2100000000000035 47.5669100000000000 11.1050000000000004   F   F   F
  6.2100000000000026 40.6940600000000003 12.6574999999999989   F   F   F
  7.7625000000000028 36.4515600000000006 12.6574999999999989   F   F   F
  6.2100000000000026 39.9134399999999943 11.1050000000000004   F   F   F
  6.2100000000000026 35.6709400000000016 12.6574999999999989   F   F   F
  7.7625000000000028 49.1790599999999927 11.1050000000000004   F   F   F
  7.7625000000000028 44.1559400000000011 11.1050000000000004   F   F   F
  7.7625000000000028 48.3984400000000008 12.6574999999999989   F   F   F
  6.2100000000000026 44.9365600000000001 11.1050000000000004   F   F   F
  6.2100000000000035 43.3244100000000003 15.7624999999999993   T   T   T
  7.7625000000000028 39.0819100000000006 15.7624999999999993   T   T   T
  6.2100000000000026 37.2830900000000014 14.2099999999999991   T   T   T
  6.2100000000000044 50.0105899999999934 15.7624999999999993   T   T   T
  7.7625000000000028 34.8394100000000009 14.2099999999999991   T   T   T
  7.7625000000000028 41.5255899999999940 14.2099999999999991   T   T   T
  7.7625000000000037 45.7680899999999937 15.7624999999999993   T   T   T
  6.2100000000000035 47.5669100000000000 14.2099999999999991   T   T   T
  6.2100000000000035 40.6940600000000003 15.7624999999999993   T   T   T
  7.7625000000000028 36.4515600000000006 15.7624999999999993   T   T   T
  6.2100000000000035 39.9134399999999943 14.2099999999999991   T   T   T
  6.2100000000000035 35.6709400000000016 15.7624999999999993   T   T   T
  7.7625000000000028 49.1790599999999927 14.2099999999999991   T   T   T
  7.7625000000000028 44.1559400000000011 14.2099999999999991   T   T   T
  7.7625000000000037 48.3984400000000008 15.7624999999999993   T   T   T
  6.2100000000000035 44.9365600000000001 14.2099999999999991   T   T   T
  6.2100000000000044 43.3244100000000003 18.8674999999999997   T   T   T
  7.7625000000000037 39.0819100000000006 18.8674999999999997   T   T   T
  6.2100000000000035 37.2830900000000014 17.3149999999999977   T   T   T
  6.2100000000000044 50.0105899999999934 18.8674999999999997   T   T   T
  7.7625000000000028 34.8394100000000009 17.3149999999999977   T   T   T
  7.7625000000000037 41.5255899999999940 17.3149999999999977   T   T   T
  7.7625000000000046 45.7680899999999937 18.8674999999999997   T   T   T
  6.2100000000000044 47.5669100000000000 17.3149999999999977   T   T   T
  6.2100000000000035 40.6940600000000003 18.8674999999999997   T   T   T
  7.7625000000000037 36.4515600000000006 18.8674999999999997   T   T   T
  6.2100000000000035 39.9134399999999943 17.3149999999999977   T   T   T
  6.2100000000000035 35.6709400000000016 18.8674999999999997   T   T   T
  7.7625000000000037 49.1790599999999927 17.3149999999999977   T   T   T
  7.7625000000000037 44.1559400000000011 17.3149999999999977   T   T   T
  7.7625000000000046 48.3984400000000008 18.8674999999999997   T   T   T
  6.2100000000000035 44.9365600000000001 17.3149999999999977   T   T   T
