C  Ni
 1.0000000000000000
    59.3080215351700701    0.0000000000000000    0.0000000000000000
    -3.6899999999999999    6.3912674799291569    0.0000000000000000
     0.0000000000000000    0.0000000000000000   21.8000000000000007
 C   Ni 
  36   4
Selective dynamics
Cartesian
 23.0940107675850328  0.0000000000000000 10.0000000000000000   T   T   T
 23.0940107675850328  1.4202816622064793 10.0000000000000000   T   T   T
 21.8640107675850324  2.1304224933097191 10.0000000000000000   T   T   T
 21.8640107675850324  3.5507041555161987 10.0000000000000000   T   T   T
 20.6340107675850319  4.2608449866194382 10.0000000000000000   T   T   T
 20.6340107675850319  5.6811266488259173 10.0000000000000000   T   T   T
 25.5540107675850336  0.0000000000000000 10.0000000000000000   T   T   T
 25.5540107675850336  1.4202816622064793 10.0000000000000000   T   T   T
 24.3240107675850332  2.1304224933097191 10.0000000000000000   T   T   T
 24.3240107675850332  3.5507041555161987 10.0000000000000000   T   T   T
 23.0940107675850328  4.2608449866194382 10.0000000000000000   T   T   T
 23.0940107675850328  5.6811266488259173 10.0000000000000000   T   T   T
 28.0140107675850345  0.0000000000000000 10.0000000000000000   T   T   T
 28.0140107675850345  1.4202816622064793 10.0000000000000000   T   T   T
 26.7840107675850341  2.1304224933097191 10.0000000000000000   T   T   T
 26.7840107675850341  3.5507041555161987 10.0000000000000000   T   T   T
 25.5540107675850336  4.2608449866194382 10.0000000000000000   T   T   T
 25.5540107675850336  5.6811266488259173 10.0000000000000000   T   T   T
 30.4740107675850318  0.0000000000000000 10.0000000000000000   T   T   T
 30.4740107675850318  1.4202816622064793 10.0000000000000000   T   T   T
 29.2440107675850314  2.1304224933097191 10.0000000000000000   T   T   T
 29.2440107675850314  3.5507041555161987 10.0000000000000000   T   T   T
 28.0140107675850345  4.2608449866194382 10.0000000000000000   T   T   T
 28.0140107675850345  5.6811266488259173 10.0000000000000000   T   T   T
 32.9340107675850362  0.0000000000000000 10.0000000000000000   T   T   T
 32.9340107675850362  1.4202816622064793 10.0000000000000000   T   T   T
 31.7040107675850322  2.1304224933097191 10.0000000000000000   T   T   T
 31.7040107675850322  3.5507041555161987 10.0000000000000000   T   T   T
 30.4740107675850318  4.2608449866194382 10.0000000000000000   T   T   T
 30.4740107675850318  5.6811266488259173 10.0000000000000000   T   T   T
 35.3940107675850300  0.0000000000000000 10.0000000000000000   T   T   T
 35.3940107675850300  1.4202816622064793 10.0000000000000000   T   T   T
 34.1640107675850331  2.1304224933097191 10.0000000000000000   T   T   T
 34.1640107675850331  3.5507041555161987 10.0000000000000000   T   T   T
 32.9340107675850362  4.2608449866194382 10.0000000000000000   T   T   T
 32.9340107675850362  5.6811266488259173 10.0000000000000000   T   T   T
 26.8140107675850352  1.6405633244129592 11.8000000000000007   T   T   T
 26.8140107675850352  4.0405633244129593 11.8000000000000007   T   T   T
 29.2140107675850338  1.6405633244129592 11.8000000000000007   T   T   T
 29.2140107675850338  4.0405633244129593 11.8000000000000007   T   T   T
