Mo C  Mo C  Mo C  Mo C  Mo C  Mo C  Mo C  Mo C 
 1.0000000000000000
    12.1052000000000000    0.0000000000000000   -0.0000000000000019
     0.0000000000000017   10.4196000000000009   -0.0000000000000017
     0.0000000000000000    0.0000000000000000   28.2748750000000051
 Mo  C   Mo  C   Mo  C   Mo  C   Mo  C   Mo  C   Mo  C   Mo  C  
   8   4   8   4   8   4   8   3   8   4   8   4   8   4   8   4
Selective dynamics
Cartesian
  5.2960250000000011  3.0373133999999999 12.3642500000000020   F   F   F
  0.7565749999999988  0.4324133999999987 12.3642500000000020   F   F   F
  3.7828750000000002  2.1724866000000005 10.0000000000000000   F   F   F
  3.7828749999999998  0.4324134000000010 12.3642500000000020   F   F   F
  5.2960250000000011  4.7773866000000007 10.0000000000000000   F   F   F
  2.2697250000000007  3.0373133999999999 12.3642500000000020   F   F   F
  2.2697250000000011  4.7773866000000007 10.0000000000000000   F   F   F
  0.7565749999999990  2.1724866000000005 10.0000000000000000   F   F   F
  3.7828750000000002  3.9073500000000001 11.1821249999999992   F   F   F
  2.2697250000000002  1.3024500000000008 11.1821250000000028   F   F   F
  5.2960250000000002  1.3024500000000001 13.5463750000000012   F   F   F
  0.7565749999999993  3.9073500000000001 13.5463750000000012   F   F   F
  5.2960250000000011  3.0373133999999999 17.0927500000000059   T   T   T
  0.7565749999999988  0.4324133999999987 17.0927500000000059   T   T   T
  3.7828750000000002  2.1724866000000005 14.7285000000000004   T   T   T
  3.7828749999999998  0.4324134000000010 17.0927500000000059   T   T   T
  5.2960250000000011  4.7773866000000007 14.7285000000000004   T   T   T
  2.2697250000000007  3.0373133999999999 17.0927500000000059   T   T   T
  2.2697250000000011  4.7773866000000007 14.7285000000000004   T   T   T
  0.7565749999999990  2.1724866000000005 14.7285000000000004   T   T   T
  3.7828750000000002  3.9073500000000001 15.9106249999999996   T   T   T
  2.2697250000000002  1.3024500000000008 15.9106249999999996   T   T   T
  5.2960250000000002  1.3024500000000001 18.2748750000000015   T   T   T
  0.7565749999999993  3.9073500000000001 18.2748750000000015   T   T   T
  5.2960250000000020  8.2471133999999999 12.3642500000000020   F   F   F
  0.7565749999999997  5.6422133999999993 12.3642500000000020   F   F   F
  3.7828750000000011  7.3822866000000005 10.0000000000000000   F   F   F
  3.7828750000000007  5.6422134000000010 12.3642500000000020   F   F   F
  5.2960250000000020  9.9871866000000011 10.0000000000000000   F   F   F
  2.2697250000000015  8.2471133999999999 12.3642500000000020   F   F   F
  2.2697250000000020  9.9871866000000011 10.0000000000000000   F   F   F
  0.7565749999999999  7.3822866000000005 10.0000000000000000   F   F   F
  3.7828750000000011  9.1171500000000005 11.1821249999999992   F   F   F
  2.2697250000000011  6.5122500000000016 11.1821250000000028   F   F   F
  5.2960250000000011  6.5122500000000008 13.5463750000000012   F   F   F
  0.7565750000000002  9.1171500000000005 13.5463750000000012   F   F   F
  5.2960250000000020  8.2471133999999999 17.0927500000000059   T   T   T
  0.7565749999999997  5.6422133999999993 17.0927500000000059   T   T   T
  3.7828750000000011  7.3822866000000005 14.7285000000000004   T   T   T
  3.7828750000000007  5.6422134000000010 17.0927500000000059   T   T   T
  5.2960250000000020  9.9871866000000011 14.7285000000000004   T   T   T
  2.2697250000000015  8.2471133999999999 17.0927500000000059   T   T   T
  2.2697250000000020  9.9871866000000011 14.7285000000000004   T   T   T
  0.7565749999999999  7.3822866000000005 14.7285000000000004   T   T   T
  3.7828750000000011  9.1171500000000005 15.9106249999999996   T   T   T
  2.2697250000000011  6.5122500000000016 15.9106249999999996   T   T   T
  0.7565750000000002  9.1171500000000005 18.2748750000000015   T   T   T
 11.3486250000000020  3.0373133999999999 12.3642499999999984   F   F   F
  6.8091749999999989  0.4324133999999987 12.3642500000000020   F   F   F
  9.8354750000000006  2.1724866000000005  9.9999999999999964   F   F   F
  9.8354749999999989  0.4324134000000010 12.3642500000000020   F   F   F
 11.3486250000000020  4.7773866000000007  9.9999999999999964   F   F   F
  8.3223250000000011  3.0373133999999999 12.3642500000000020   F   F   F
  8.3223250000000011  4.7773866000000007  9.9999999999999964   F   F   F
  6.8091749999999989  2.1724866000000005 10.0000000000000000   F   F   F
  9.8354750000000006  3.9073500000000001 11.1821249999999992   F   F   F
  8.3223249999999993  1.3024500000000008 11.1821249999999992   F   F   F
 11.3486250000000002  1.3024500000000001 13.5463750000000012   F   F   F
  6.8091749999999998  3.9073500000000001 13.5463750000000012   F   F   F
 11.3486250000000020  3.0373133999999999 17.0927500000000059   T   T   T
  6.8091749999999989  0.4324133999999987 17.0927500000000059   T   T   T
  9.8354750000000006  2.1724866000000005 14.7285000000000004   T   T   T
  9.8354749999999989  0.4324134000000010 17.0927500000000059   T   T   T
 11.3486250000000020  4.7773866000000007 14.7285000000000004   T   T   T
  8.3223250000000011  3.0373133999999999 17.0927500000000059   T   T   T
  8.3223250000000011  4.7773866000000007 14.7285000000000004   T   T   T
  6.8091749999999989  2.1724866000000005 14.7285000000000004   T   T   T
  9.8354750000000006  3.9073500000000001 15.9106249999999996   T   T   T
  8.3223249999999993  1.3024500000000008 15.9106249999999996   T   T   T
 11.3486250000000002  1.3024500000000001 18.2748750000000015   T   T   T
  6.8091749999999998  3.9073500000000001 18.2748750000000015   T   T   T
 11.3486250000000020  8.2471133999999999 12.3642499999999984   F   F   F
  6.8091749999999998  5.6422133999999993 12.3642500000000020   F   F   F
  9.8354750000000006  7.3822866000000005  9.9999999999999964   F   F   F
  9.8354750000000006  5.6422134000000010 12.3642500000000020   F   F   F
 11.3486250000000020  9.9871866000000011  9.9999999999999964   F   F   F
  8.3223250000000011  8.2471133999999999 12.3642500000000020   F   F   F
  8.3223250000000029  9.9871866000000011  9.9999999999999964   F   F   F
  6.8091749999999998  7.3822866000000005 10.0000000000000000   F   F   F
  9.8354750000000006  9.1171500000000005 11.1821249999999992   F   F   F
  8.3223250000000011  6.5122500000000016 11.1821249999999992   F   F   F
 11.3486250000000020  6.5122500000000008 13.5463749999999976   F   F   F
  6.8091749999999998  9.1171500000000005 13.5463749999999976   F   F   F
 11.3486250000000020  8.2471133999999999 17.0927500000000023   T   T   T
  6.8091749999999998  5.6422133999999993 17.0927500000000023   T   T   T
  9.8354750000000006  7.3822866000000005 14.7284999999999968   T   T   T
  9.8354750000000006  5.6422134000000010 17.0927500000000023   T   T   T
 11.3486250000000020  9.9871866000000011 14.7284999999999968   T   T   T
  8.3223250000000011  8.2471133999999999 17.0927500000000023   T   T   T
  8.3223250000000029  9.9871866000000011 14.7284999999999968   T   T   T
  6.8091749999999998  7.3822866000000005 14.7284999999999968   T   T   T
  9.8354750000000006  9.1171500000000005 15.9106249999999960   T   T   T
  8.3223250000000011  6.5122500000000016 15.9106249999999960   T   T   T
 11.3486250000000020  6.5122500000000008 18.2748749999999980   T   T   T
  6.8091749999999998  9.1171500000000005 18.2748749999999980   T   T   T
