Ni Mo C  Au
 1.0000000000000000
    15.7419185615985189    0.0000000000000000    0.0000000000000010
     5.5096714965594824   24.3999737704777040    0.0000000000000015
     0.0000000000000000    0.0000000000000000   37.5487500000000054
 Ni  Mo  C   Au 
 248 192  96   2
Selective dynamics
Cartesian
  0.0000000000000000  0.0000000000000000 13.5199999999999960   T   T   T
  0.7870959280799265  2.3612877842397779 13.5199999999999960   T   T   T
  1.5741918561598529  4.7225755684795558 13.5199999999999960   T   T   T
  2.3612877842397779  7.0838633527193329 13.5199999999999960   T   T   T
  3.1483837123197058  9.4451511369591117 13.5199999999999960   T   T   T
  3.9354796403996319 11.8064389211988896 13.5199999999999960   T   T   T
  4.7225755684795558 14.1677267054386657 13.5199999999999996   T   T   T
  5.5096714965594815 16.5290144896784419 13.5199999999999996   T   T   T
  6.2967674246394116 18.8903022739182234 13.5199999999999996   T   T   T
  7.0838633527193373 21.2515900581580013 13.5199999999999996   T   T   T
  7.8709592807992639 23.6128778423977792 13.5199999999999996   T   T   T
  3.1483837123197036  1.5741918561598522 13.5199999999999960   T   T   T
  3.9354796403996302  3.9354796403996297 13.5199999999999960   T   T   T
  4.7225755684795567  6.2967674246394072 13.5199999999999960   T   T   T
  5.5096714965594824  8.6580552088791851 13.5199999999999960   T   T   T
  6.2967674246394090 11.0193429931189613 13.5199999999999996   T   T   T
  7.0838633527193338 13.3806307773587392 13.5199999999999996   T   T   T
  7.8709592807992621 15.7419185615985153 13.5199999999999996   T   T   T
  8.6580552088791869 18.1032063458382950 13.5199999999999996   T   T   T
  9.4451511369591135 20.4644941300780694 13.5199999999999996   T   T   T
 10.2322470650390436 22.8257819143178473 13.5199999999999996   T   T   T
  5.5096714965594806  0.7870959280799269 13.5199999999999960   T   T   T
  6.2967674246394072  3.1483837123197045 13.5199999999999960   T   T   T
  7.0838633527193338  5.5096714965594824 13.5199999999999960   T   T   T
  7.8709592807992603  7.8709592807992594 13.5199999999999960   T   T   T
  8.6580552088791851 10.2322470650390365 13.5199999999999996   T   T   T
  9.4451511369591135 12.5935348492788144 13.5199999999999996   T   T   T
 10.2322470650390400 14.9548226335185923 13.5199999999999996   T   T   T
 11.0193429931189648 17.3161104177583702 13.5199999999999996   T   T   T
 11.8064389211988896 19.6773982019981482 13.5199999999999996   T   T   T
 12.5935348492788179 22.0386859862379225 13.5199999999999996   T   T   T
  7.8709592807992577  0.0000000000000014 13.5199999999999960   T   T   T
  8.6580552088791851  2.3612877842397793 13.5199999999999960   T   T   T
  9.4451511369591117  4.7225755684795567 13.5199999999999960   T   T   T
 10.2322470650390365  7.0838633527193329 13.5199999999999996   T   T   T
 11.0193429931189630  9.4451511369591117 13.5199999999999996   T   T   T
 11.8064389211988914 11.8064389211988896 13.5199999999999996   T   T   T
 12.5935348492788144 14.1677267054386657 13.5199999999999996   T   T   T
 13.3806307773587410 16.5290144896784454 13.5199999999999996   T   T   T
 14.1677267054386711 18.8903022739182234 13.5199999999999996   T   T   T
 14.9548226335185976 21.2515900581580013 13.5199999999999996   T   T   T
 15.7419185615985242 23.6128778423977792 13.5199999999999996   T   T   T
 11.0193429931189613  1.5741918561598538 13.5199999999999960   T   T   T
 11.8064389211988860  3.9354796403996302 13.5199999999999996   T   T   T
 12.5935348492788144  6.2967674246394090 13.5199999999999996   T   T   T
 13.3806307773587427  8.6580552088791851 13.5199999999999996   T   T   T
 14.1677267054386675 11.0193429931189648 13.5199999999999996   T   T   T
 14.9548226335185941 13.3806307773587392 13.5199999999999996   T   T   T
 15.7419185615985207 15.7419185615985189 13.5199999999999996   T   T   T
 16.5290144896784454 18.1032063458382950 13.5199999999999996   T   T   T
 17.3161104177583702 20.4644941300780729 13.5199999999999996   T   T   T
 18.1032063458382986 22.8257819143178473 13.5199999999999996   T   T   T
 13.3806307773587410  0.7870959280799293 13.5199999999999960   T   T   T
 14.1677267054386657  3.1483837123197058 13.5199999999999996   T   T   T
 14.9548226335185923  5.5096714965594833 13.5199999999999996   T   T   T
 15.7419185615985207  7.8709592807992621 13.5199999999999996   T   T   T
 16.5290144896784454 10.2322470650390382 13.5199999999999996   T   T   T
 17.3161104177583667 12.5935348492788144 13.5199999999999996   T   T   T
 18.1032063458382950 14.9548226335185923 13.5199999999999996   T   T   T
 18.8903022739182234 17.3161104177583702 13.5199999999999996   T   T   T
 19.6773982019981517 19.6773982019981482 13.5199999999999996   T   T   T
 20.4644941300780729 22.0386859862379225 13.5199999999999996   T   T   T
  1.5741918561598518  0.7870959280799262 15.2799999999999976   T   T   T
  2.3612877842397784  3.1483837123197036 15.2799999999999976   T   T   T
  3.1483837123197045  5.5096714965594806 15.2799999999999976   T   T   T
  3.9354796403996311  7.8709592807992577 15.2799999999999976   T   T   T
  4.7225755684795576 10.2322470650390365 15.2799999999999976   T   T   T
  5.5096714965594824 12.5935348492788144 15.2800000000000011   T   T   T
  6.2967674246394107 14.9548226335185905 15.2800000000000011   T   T   T
  7.0838633527193338 17.3161104177583702 15.2800000000000011   T   T   T
  7.8709592807992639 19.6773982019981482 15.2800000000000011   T   T   T
  8.6580552088791887 22.0386859862379296 15.2800000000000011   T   T   T
  3.9354796403996333  0.0000000000000003 15.2799999999999976   T   T   T
  4.7225755684795558  2.3612877842397784 15.2799999999999976   T   T   T
  5.5096714965594815  4.7225755684795558 15.2799999999999976   T   T   T
  6.2967674246394090  7.0838633527193338 15.2799999999999976   T   T   T
  7.0838633527193355  9.4451511369591135 15.2800000000000011   T   T   T
  7.8709592807992639 11.8064389211988896 15.2800000000000011   T   T   T
  8.6580552088791869 14.1677267054386657 15.2800000000000011   T   T   T
  9.4451511369591135 16.5290144896784419 15.2800000000000011   T   T   T
 10.2322470650390400 18.8903022739182234 15.2800000000000011   T   T   T
 11.0193429931189666 21.2515900581579977 15.2800000000000011   T   T   T
 11.8064389211988932 23.6128778423977757 15.2800000000000011   T   T   T
  7.0838633527193329  1.5741918561598529 15.2799999999999976   T   T   T
  7.8709592807992603  3.9354796403996311 15.2799999999999976   T   T   T
  8.6580552088791869  6.2967674246394072 15.2799999999999976   T   T   T
  9.4451511369591117  8.6580552088791851 15.2800000000000011   T   T   T
 10.2322470650390365 11.0193429931189613 15.2800000000000011   T   T   T
 11.0193429931189648 13.3806307773587392 15.2800000000000011   T   T   T
 11.8064389211988896 15.7419185615985207 15.2800000000000011   T   T   T
 12.5935348492788215 18.1032063458382950 15.2800000000000011   T   T   T
 13.3806307773587392 20.4644941300780729 15.2800000000000011   T   T   T
 14.1677267054386711 22.8257819143178544 15.2800000000000011   T   T   T
  9.4451511369591099  0.7870959280799279 15.2799999999999976   T   T   T
 10.2322470650390365  3.1483837123197058 15.2799999999999976   T   T   T
 11.0193429931189648  5.5096714965594824 15.2800000000000011   T   T   T
 11.8064389211988896  7.8709592807992603 15.2800000000000011   T   T   T
 12.5935348492788179 10.2322470650390382 15.2800000000000011   T   T   T
 13.3806307773587427 12.5935348492788144 15.2800000000000011   T   T   T
 14.1677267054386675 14.9548226335185905 15.2800000000000011   T   T   T
 14.9548226335185941 17.3161104177583702 15.2800000000000011   T   T   T
 15.7419185615985242 19.6773982019981482 15.2800000000000011   T   T   T
 16.5290144896784490 22.0386859862379296 15.2800000000000011   T   T   T
 11.8064389211988914  0.0000000000000068 15.2799999999999976   T   T   T
 12.5935348492788126  2.3612877842397793 15.2799999999999976   T   T   T
 13.3806307773587392  4.7225755684795567 15.2800000000000011   T   T   T
 14.1677267054386675  7.0838633527193355 15.2800000000000011   T   T   T
 14.9548226335185923  9.4451511369591135 15.2800000000000011   T   T   T
 15.7419185615985224 11.8064389211988914 15.2800000000000011   T   T   T
 16.5290144896784454 14.1677267054386657 15.2800000000000011   T   T   T
 17.3161104177583738 16.5290144896784454 15.2800000000000011   T   T   T
 18.1032063458383021 18.8903022739182234 15.2800000000000011   T   T   T
 18.8903022739182234 21.2515900581579977 15.2800000000000011   T   T   T
 19.6773982019981482 23.6128778423977792 15.2800000000000011   T   T   T
 14.9548226335185923  1.5741918561598551 15.2800000000000011   T   T   T
 15.7419185615985153  3.9354796403996311 15.2800000000000011   T   T   T
 16.5290144896784454  6.2967674246394099 15.2800000000000011   T   T   T
 17.3161104177583738  8.6580552088791869 15.2800000000000011   T   T   T
 18.1032063458382986 11.0193429931189648 15.2800000000000011   T   T   T
  3.1483837123197054 13.3806307773587392 15.2799999999999976   T   T   T
  3.9354796403996359 15.7419185615985207 15.2800000000000011   T   T   T
  4.7225755684795576 18.1032063458382950 15.2800000000000011   T   T   T
  5.5096714965594806 20.4644941300780729 15.2800000000000011   T   T   T
  6.2967674246394081 22.8257819143178473 15.2800000000000011   T   T   T
  0.0000000000000000  0.0000000000000000 10.0000000000000000   F   F   F
  0.7870959280799265  2.3612877842397779 10.0000000000000000   F   F   F
  1.5741918561598529  4.7225755684795558 10.0000000000000000   F   F   F
  2.3612877842397779  7.0838633527193329 10.0000000000000000   F   F   F
  3.1483837123197058  9.4451511369591117 10.0000000000000000   F   F   F
  3.9354796403996319 11.8064389211988896 10.0000000000000000   F   F   F
  4.7225755684795558 14.1677267054386657 10.0000000000000000   F   F   F
  5.5096714965594815 16.5290144896784419 10.0000000000000000   F   F   F
  6.2967674246394116 18.8903022739182234 10.0000000000000000   F   F   F
  7.0838633527193373 21.2515900581580013 10.0000000000000000   F   F   F
  7.8709592807992639 23.6128778423977792 10.0000000000000000   F   F   F
  3.1483837123197036  1.5741918561598522 10.0000000000000000   F   F   F
  3.9354796403996302  3.9354796403996297 10.0000000000000000   F   F   F
  4.7225755684795567  6.2967674246394072 10.0000000000000000   F   F   F
  5.5096714965594824  8.6580552088791851 10.0000000000000000   F   F   F
  6.2967674246394090 11.0193429931189613 10.0000000000000000   F   F   F
  7.0838633527193338 13.3806307773587392 10.0000000000000000   F   F   F
  7.8709592807992621 15.7419185615985153 10.0000000000000000   F   F   F
  8.6580552088791869 18.1032063458382950 10.0000000000000000   F   F   F
  9.4451511369591135 20.4644941300780694 10.0000000000000000   F   F   F
 10.2322470650390436 22.8257819143178473 10.0000000000000000   F   F   F
  5.5096714965594806  0.7870959280799269 10.0000000000000000   F   F   F
  6.2967674246394072  3.1483837123197045 10.0000000000000000   F   F   F
  7.0838633527193338  5.5096714965594824 10.0000000000000000   F   F   F
  7.8709592807992603  7.8709592807992594 10.0000000000000000   F   F   F
  8.6580552088791851 10.2322470650390365 10.0000000000000000   F   F   F
  9.4451511369591135 12.5935348492788144 10.0000000000000000   F   F   F
 10.2322470650390400 14.9548226335185923 10.0000000000000000   F   F   F
 11.0193429931189648 17.3161104177583702 10.0000000000000000   F   F   F
 11.8064389211988896 19.6773982019981482 10.0000000000000000   F   F   F
 12.5935348492788179 22.0386859862379225 10.0000000000000000   F   F   F
  7.8709592807992577  0.0000000000000014 10.0000000000000000   F   F   F
  8.6580552088791851  2.3612877842397793 10.0000000000000000   F   F   F
  9.4451511369591117  4.7225755684795567 10.0000000000000000   F   F   F
 10.2322470650390365  7.0838633527193329 10.0000000000000000   F   F   F
 11.0193429931189630  9.4451511369591117 10.0000000000000000   F   F   F
 11.8064389211988914 11.8064389211988896 10.0000000000000000   F   F   F
 12.5935348492788144 14.1677267054386657 10.0000000000000000   F   F   F
 13.3806307773587410 16.5290144896784454 10.0000000000000000   F   F   F
 14.1677267054386711 18.8903022739182234 10.0000000000000000   F   F   F
 14.9548226335185976 21.2515900581580013 10.0000000000000000   F   F   F
 15.7419185615985242 23.6128778423977792 10.0000000000000000   F   F   F
 11.0193429931189613  1.5741918561598538 10.0000000000000000   F   F   F
 11.8064389211988860  3.9354796403996302 10.0000000000000000   F   F   F
 12.5935348492788144  6.2967674246394090 10.0000000000000000   F   F   F
 13.3806307773587427  8.6580552088791851 10.0000000000000000   F   F   F
 14.1677267054386675 11.0193429931189648 10.0000000000000000   F   F   F
 14.9548226335185941 13.3806307773587392 10.0000000000000000   F   F   F
 15.7419185615985207 15.7419185615985189 10.0000000000000000   F   F   F
 16.5290144896784454 18.1032063458382950 10.0000000000000000   F   F   F
 17.3161104177583702 20.4644941300780729 10.0000000000000000   F   F   F
 18.1032063458382986 22.8257819143178473 10.0000000000000000   F   F   F
 13.3806307773587410  0.7870959280799293 10.0000000000000000   F   F   F
 14.1677267054386657  3.1483837123197058 10.0000000000000000   F   F   F
 14.9548226335185923  5.5096714965594833 10.0000000000000000   F   F   F
 15.7419185615985207  7.8709592807992621 10.0000000000000000   F   F   F
 16.5290144896784454 10.2322470650390382 10.0000000000000000   F   F   F
 17.3161104177583667 12.5935348492788144 10.0000000000000000   F   F   F
 18.1032063458382950 14.9548226335185923 10.0000000000000000   F   F   F
 18.8903022739182234 17.3161104177583702 10.0000000000000000   F   F   F
 19.6773982019981517 19.6773982019981482 10.0000000000000000   F   F   F
 20.4644941300780729 22.0386859862379225 10.0000000000000000   F   F   F
  1.5741918561598518  0.7870959280799262 11.7600000000000016   F   F   F
  2.3612877842397784  3.1483837123197036 11.7600000000000016   F   F   F
  3.1483837123197045  5.5096714965594806 11.7600000000000016   F   F   F
  3.9354796403996311  7.8709592807992577 11.7600000000000016   F   F   F
  4.7225755684795576 10.2322470650390365 11.7600000000000016   F   F   F
  5.5096714965594824 12.5935348492788144 11.7600000000000016   F   F   F
  6.2967674246394107 14.9548226335185905 11.7600000000000016   F   F   F
  7.0838633527193338 17.3161104177583702 11.7600000000000016   F   F   F
  7.8709592807992639 19.6773982019981482 11.7600000000000016   F   F   F
  8.6580552088791887 22.0386859862379296 11.7600000000000016   F   F   F
  3.9354796403996333  0.0000000000000003 11.7600000000000016   F   F   F
  4.7225755684795558  2.3612877842397784 11.7600000000000016   F   F   F
  5.5096714965594815  4.7225755684795558 11.7600000000000016   F   F   F
  6.2967674246394090  7.0838633527193338 11.7600000000000016   F   F   F
  7.0838633527193355  9.4451511369591135 11.7600000000000016   F   F   F
  7.8709592807992639 11.8064389211988896 11.7600000000000016   F   F   F
  8.6580552088791869 14.1677267054386657 11.7600000000000016   F   F   F
  9.4451511369591135 16.5290144896784419 11.7600000000000016   F   F   F
 10.2322470650390400 18.8903022739182234 11.7600000000000016   F   F   F
 11.0193429931189666 21.2515900581579977 11.7600000000000016   F   F   F
 11.8064389211988932 23.6128778423977757 11.7600000000000016   F   F   F
  7.0838633527193329  1.5741918561598529 11.7600000000000016   F   F   F
  7.8709592807992603  3.9354796403996311 11.7600000000000016   F   F   F
  8.6580552088791869  6.2967674246394072 11.7600000000000016   F   F   F
  9.4451511369591117  8.6580552088791851 11.7600000000000016   F   F   F
 10.2322470650390365 11.0193429931189613 11.7600000000000016   F   F   F
 11.0193429931189648 13.3806307773587392 11.7600000000000016   F   F   F
 11.8064389211988896 15.7419185615985207 11.7600000000000016   F   F   F
 12.5935348492788215 18.1032063458382950 11.7600000000000016   F   F   F
 13.3806307773587392 20.4644941300780729 11.7600000000000016   F   F   F
 14.1677267054386711 22.8257819143178544 11.7600000000000016   F   F   F
  9.4451511369591099  0.7870959280799279 11.7600000000000016   F   F   F
 10.2322470650390365  3.1483837123197058 11.7600000000000016   F   F   F
 11.0193429931189648  5.5096714965594824 11.7600000000000016   F   F   F
 11.8064389211988896  7.8709592807992603 11.7600000000000016   F   F   F
 12.5935348492788179 10.2322470650390382 11.7600000000000016   F   F   F
 13.3806307773587427 12.5935348492788144 11.7600000000000016   F   F   F
 14.1677267054386675 14.9548226335185905 11.7600000000000016   F   F   F
 14.9548226335185941 17.3161104177583702 11.7600000000000016   F   F   F
 15.7419185615985242 19.6773982019981482 11.7600000000000016   F   F   F
 16.5290144896784490 22.0386859862379296 11.7600000000000016   F   F   F
 11.8064389211988914  0.0000000000000068 11.7600000000000016   F   F   F
 12.5935348492788126  2.3612877842397793 11.7600000000000016   F   F   F
 13.3806307773587392  4.7225755684795567 11.7600000000000016   F   F   F
 14.1677267054386675  7.0838633527193355 11.7600000000000016   F   F   F
 14.9548226335185923  9.4451511369591135 11.7600000000000016   F   F   F
 15.7419185615985224 11.8064389211988914 11.7600000000000016   F   F   F
 16.5290144896784454 14.1677267054386657 11.7600000000000016   F   F   F
 17.3161104177583738 16.5290144896784454 11.7600000000000016   F   F   F
 18.1032063458383021 18.8903022739182234 11.7600000000000016   F   F   F
 18.8903022739182234 21.2515900581579977 11.7600000000000016   F   F   F
 19.6773982019981482 23.6128778423977792 11.7600000000000016   F   F   F
 14.9548226335185923  1.5741918561598551 11.7600000000000016   F   F   F
 15.7419185615985153  3.9354796403996311 11.7600000000000016   F   F   F
 16.5290144896784454  6.2967674246394099 11.7600000000000016   F   F   F
 17.3161104177583738  8.6580552088791869 11.7600000000000016   F   F   F
 18.1032063458382986 11.0193429931189648 11.7600000000000016   F   F   F
  3.1483837123197054 13.3806307773587392 11.7600000000000016   F   F   F
  3.9354796403996359 15.7419185615985207 11.7600000000000016   F   F   F
  4.7225755684795576 18.1032063458382950 11.7600000000000016   F   F   F
  5.5096714965594806 20.4644941300780729 11.7600000000000016   F   F   F
  6.2967674246394081 22.8257819143178473 11.7600000000000016   F   F   F
  2.1963255959796939  0.7624991803274292 23.3862500000000004   T   T   T
  7.4436317831791978  0.7624991803274292 23.3862500000000004   T   T   T
 12.6909379703787035  0.7624991803274292 23.3862500000000004   T   T   T
  7.5092231105191924  6.8624926229468555 23.3862500000000004   T   T   T
 12.7565292977186964  6.8624926229468555 23.3862500000000004   T   T   T
  2.2619169233196881  6.8624926229468555 23.3862500000000004   T   T   T
  7.5748144378591835 12.9624860655662797 23.3862500000000004   T   T   T
 12.8221206250586928 12.9624860655662797 23.3862500000000004   T   T   T
 18.0694268122581967 12.9624860655662797 23.3862500000000004   T   T   T
  7.6404057651991799 19.0624795081857066 23.3862500000000004   T   T   T
 12.8877119523986856 19.0624795081857066 23.3862500000000004   T   T   T
 18.1350181395981949 19.0624795081857066 23.3862500000000040   T   T   T
  4.8691721850844409  5.3374942622919983 23.3862500000000004   T   T   T
 10.1164783722839466  5.3374942622919983 23.3862500000000004   T   T   T
 15.3637845594834523  5.3374942622919983 23.3862500000000004   T   T   T
 10.1820696996239413 11.4374877049114261 23.3862500000000004   T   T   T
 15.4293758868234399 11.4374877049114261 23.3862500000000004   T   T   T
  4.9347635124244347 11.4374877049114261 23.3862500000000004   T   T   T
 10.2476610269639359 17.5374811475308512 23.3862500000000004   T   T   T
 15.4949672141634380 17.5374811475308512 23.3862500000000040   T   T   T
  5.0003548397644266 17.5374811475308512 23.3862500000000004   T   T   T
 10.3132523543039305 23.6374745901502799 23.3862500000000040   T   T   T
 15.5605585415034344 23.6374745901502799 23.3862500000000040   T   T   T
 20.8078647287029384 23.6374745901502799 23.3862500000000040   T   T   T
  3.0837762548898091  2.2874975409822857 25.7487500000000011   T   T   T
  8.3310824420893166  2.2874975409822857 25.7487500000000011   T   T   T
 13.5783886292888205  2.2874975409822857 25.7487500000000011   T   T   T
  8.3966737694293094  8.3874909836017100 25.7487500000000011   T   T   T
 13.6439799566288134  8.3874909836017100 25.7487500000000011   T   T   T
  3.1493675822298002  8.3874909836017100 25.7487500000000011   T   T   T
  8.4622650967693041 14.4874844262211369 25.7487500000000011   T   T   T
 13.7095712839688062 14.4874844262211369 25.7487500000000011   T   T   T
 18.9568774711683155 14.4874844262211369 25.7487500000000047   T   T   T
  8.5278564241092987 20.5874778688405655 25.7487500000000011   T   T   T
 13.7751626113088008 20.5874778688405655 25.7487500000000047   T   T   T
 19.0224687985083101 20.5874778688405655 25.7487500000000047   T   T   T
  4.8363765214144410  2.2874975409822862 23.3862500000000004   T   T   T
 10.0836827086139476  2.2874975409822862 23.3862500000000004   T   T   T
 15.3309888958134533  2.2874975409822862 23.3862500000000004   T   T   T
 10.1492740359539422  8.3874909836017117 23.3862500000000004   T   T   T
 15.3965802231534461  8.3874909836017117 23.3862500000000004   T   T   T
  4.9019678487544311  8.3874909836017117 23.3862500000000004   T   T   T
 10.2148653632939350 14.4874844262211369 23.3862500000000004   T   T   T
 15.4621715504934372 14.4874844262211369 23.3862500000000004   T   T   T
  4.9675591760944258 14.4874844262211369 23.3862500000000004   T   T   T
 10.2804566906339296 20.5874778688405655 23.3862500000000004   T   T   T
 15.5277628778334353 20.5874778688405655 23.3862500000000040   T   T   T
  5.0331505034344222 20.5874778688405655 23.3862500000000004   T   T   T
  0.4437253294550584  0.7624991803274288 25.7487500000000011   T   T   T
  5.6910315166545633  0.7624991803274288 25.7487500000000011   T   T   T
 10.9383377038540708  0.7624991803274288 25.7487500000000011   T   T   T
  5.7566228439945561  6.8624926229468546 25.7487500000000011   T   T   T
 11.0039290311940636  6.8624926229468546 25.7487500000000011   T   T   T
 16.2512352183935711  6.8624926229468546 25.7487500000000011   T   T   T
  5.8222141713345525 12.9624860655662797 25.7487500000000011   T   T   T
 11.0695203585340582 12.9624860655662797 25.7487500000000011   T   T   T
 16.3168265457335622 12.9624860655662797 25.7487500000000011   T   T   T
  5.8878054986745463 19.0624795081857066 25.7487500000000011   T   T   T
 11.1351116858740511 19.0624795081857066 25.7487500000000011   T   T   T
 16.3824178730735568 19.0624795081857066 25.7487500000000047   T   T   T
  2.2291212596496912  3.8124959016371420 23.3862500000000004   T   T   T
  7.4764274468491951  3.8124959016371420 23.3862500000000004   T   T   T
 12.7237336340487008  3.8124959016371420 23.3862500000000004   T   T   T
  7.5420187741891898  9.9124893442565689 23.3862500000000004   T   T   T
 12.7893249613886937  9.9124893442565689 23.3862500000000004   T   T   T
  2.2947125869896845  9.9124893442565689 23.3862500000000004   T   T   T
  7.6076101015291862 16.0124827868759922 23.3862500000000004   T   T   T
 12.8549162887286883 16.0124827868759922 23.3862500000000004   T   T   T
 18.1022224759281976 16.0124827868759922 23.3862500000000040   T   T   T
  7.6732014288691781 22.1124762294954209 23.3862500000000004   T   T   T
 12.9205076160686829 22.1124762294954209 23.3862500000000040   T   T   T
 18.1678138032681922 22.1124762294954209 23.3862500000000040   T   T   T
 16.2184395547235702  3.8124959016371420 25.7487500000000011   T   T   T
  5.7238271803245606  3.8124959016371420 25.7487500000000011   T   T   T
 10.9711333675240681  3.8124959016371420 25.7487500000000011   T   T   T
  5.7894185076645535  9.9124893442565671 25.7487500000000011   T   T   T
 11.0367246948640592  9.9124893442565671 25.7487500000000011   T   T   T
 16.2840308820635649  9.9124893442565671 25.7487500000000011   T   T   T
  5.8550098350045499 16.0124827868759922 25.7487500000000011   T   T   T
 11.1023160222040556 16.0124827868759922 25.7487500000000011   T   T   T
 16.3496222094035595 16.0124827868759922 25.7487500000000047   T   T   T
  5.9206011623445427 22.1124762294954209 25.7487500000000011   T   T   T
 11.1679073495440484 22.1124762294954209 25.7487500000000011   T   T   T
 16.4152135367435541 22.1124762294954209 25.7487500000000047   T   T   T
  3.1165719185598064  5.3374942622919983 25.7487500000000011   T   T   T
  8.3638781057593121  5.3374942622919983 25.7487500000000011   T   T   T
 13.6111842929588143  5.3374942622919983 25.7487500000000011   T   T   T
  8.4294694330993050 11.4374877049114243 25.7487500000000011   T   T   T
 13.6767756202988053 11.4374877049114243 25.7487500000000011   T   T   T
  3.1821632458997997 11.4374877049114243 25.7487500000000011   T   T   T
  8.4950607604393049 17.5374811475308512 25.7487500000000011   T   T   T
 13.7423669476388053 17.5374811475308512 25.7487500000000011   T   T   T
 18.9896731348383128 17.5374811475308512 25.7487500000000047   T   T   T
  8.5606520877792942 23.6374745901502799 25.7487500000000011   T   T   T
 13.8079582749787981 23.6374745901502799 25.7487500000000047   T   T   T
 19.0552644621783074 23.6374745901502799 25.7487500000000047   T   T   T
  2.1963255959796935  0.7624991803274299 18.6612499999999990   T   T   T
  7.4436317831791987  0.7624991803274299 18.6612499999999990   T   T   T
 12.6909379703787035  0.7624991803274299 18.6612499999999990   T   T   T
  7.5092231105191924  6.8624926229468555 18.6612499999999990   T   T   T
 12.7565292977186946  6.8624926229468555 18.6612499999999990   T   T   T
  2.2619169233196876  6.8624926229468555 18.6612499999999990   T   T   T
  7.5748144378591853 12.9624860655662832 18.6612499999999990   T   T   T
 12.8221206250586928 12.9624860655662832 18.6612499999999990   T   T   T
 18.0694268122581967 12.9624860655662832 18.6612499999999990   T   T   T
  7.6404057651991799 19.0624795081857101 18.6612499999999990   T   T   T
 12.8877119523986856 19.0624795081857101 18.6612499999999990   T   T   T
 18.1350181395981949 19.0624795081857101 18.6612500000000026   T   T   T
  4.8691721850844418  5.3374942622920001 18.6612499999999990   T   T   T
 10.1164783722839466  5.3374942622920001 18.6612499999999990   T   T   T
 15.3637845594834523  5.3374942622920001 18.6612499999999990   T   T   T
 10.1820696996239413 11.4374877049114261 18.6612499999999990   T   T   T
 15.4293758868234434 11.4374877049114261 18.6612499999999990   T   T   T
  4.9347635124244356 11.4374877049114261 18.6612499999999990   T   T   T
 10.2476610269639359 17.5374811475308512 18.6612499999999990   T   T   T
 15.4949672141634363 17.5374811475308512 18.6612500000000026   T   T   T
  5.0003548397644266 17.5374811475308512 18.6612499999999990   T   T   T
 10.3132523543039287 23.6374745901502799 18.6612500000000026   T   T   T
 15.5605585415034327 23.6374745901502799 18.6612500000000026   T   T   T
 20.8078647287029384 23.6374745901502799 18.6612500000000026   T   T   T
  3.0837762548898096  2.2874975409822866 21.0237500000000033   T   T   T
  8.3310824420893148  2.2874975409822866 21.0237500000000033   T   T   T
 13.5783886292888205  2.2874975409822866 21.0237500000000033   T   T   T
  8.3966737694293094  8.3874909836017117 21.0237500000000033   T   T   T
 13.6439799566288151  8.3874909836017117 21.0237500000000033   T   T   T
  3.1493675822298011  8.3874909836017117 21.0237500000000033   T   T   T
  8.4622650967693041 14.4874844262211369 21.0237500000000033   T   T   T
 13.7095712839688062 14.4874844262211369 21.0237500000000033   T   T   T
 18.9568774711683155 14.4874844262211369 21.0237500000000068   T   T   T
  8.5278564241092987 20.5874778688405655 21.0237500000000033   T   T   T
 13.7751626113088008 20.5874778688405655 21.0237500000000068   T   T   T
 19.0224687985083065 20.5874778688405655 21.0237500000000068   T   T   T
  4.8363765214144436  2.2874975409822866 18.6612499999999990   T   T   T
 10.0836827086139476  2.2874975409822866 18.6612499999999990   T   T   T
 15.3309888958134533  2.2874975409822866 18.6612499999999990   T   T   T
 10.1492740359539440  8.3874909836017117 18.6612499999999990   T   T   T
 15.3965802231534461  8.3874909836017117 18.6612499999999990   T   T   T
  4.9019678487544356  8.3874909836017117 18.6612499999999990   T   T   T
 10.2148653632939386 14.4874844262211386 18.6612499999999990   T   T   T
 15.4621715504934407 14.4874844262211386 18.6612499999999990   T   T   T
  4.9675591760944311 14.4874844262211386 18.6612499999999990   T   T   T
 10.2804566906339332 20.5874778688405691 18.6612499999999990   T   T   T
 15.5277628778334353 20.5874778688405691 18.6612500000000026   T   T   T
  5.0331505034344239 20.5874778688405691 18.6612499999999990   T   T   T
  0.4437253294550586  0.7624991803274296 21.0237500000000033   T   T   T
  5.6910315166545642  0.7624991803274296 21.0237500000000033   T   T   T
 10.9383377038540690  0.7624991803274296 21.0237500000000033   T   T   T
  5.7566228439945579  6.8624926229468555 21.0237500000000033   T   T   T
 11.0039290311940636  6.8624926229468555 21.0237500000000033   T   T   T
 16.2512352183935711  6.8624926229468555 21.0237500000000033   T   T   T
  5.8222141713345517 12.9624860655662797 21.0237500000000033   T   T   T
 11.0695203585340582 12.9624860655662797 21.0237500000000033   T   T   T
 16.3168265457335551 12.9624860655662797 21.0237500000000033   T   T   T
  5.8878054986745463 19.0624795081857066 21.0237500000000033   T   T   T
 11.1351116858740511 19.0624795081857066 21.0237500000000033   T   T   T
 16.3824178730735568 19.0624795081857066 21.0237500000000068   T   T   T
  2.2291212596496912  3.8124959016371434 18.6612499999999990   T   T   T
  7.4764274468491960  3.8124959016371434 18.6612499999999990   T   T   T
 12.7237336340487008  3.8124959016371434 18.6612499999999990   T   T   T
  7.5420187741891898  9.9124893442565689 18.6612499999999990   T   T   T
 12.7893249613886937  9.9124893442565689 18.6612499999999990   T   T   T
  2.2947125869896841  9.9124893442565689 18.6612499999999990   T   T   T
  7.6076101015291862 16.0124827868759958 18.6612499999999990   T   T   T
 12.8549162887286883 16.0124827868759958 18.6612499999999990   T   T   T
 18.1022224759281976 16.0124827868759958 18.6612500000000026   T   T   T
  7.6732014288691781 22.1124762294954245 18.6612499999999990   T   T   T
 12.9205076160686794 22.1124762294954245 18.6612500000000026   T   T   T
 18.1678138032681922 22.1124762294954245 18.6612500000000026   T   T   T
 16.2184395547235702  3.8124959016371425 21.0237500000000033   T   T   T
  5.7238271803245633  3.8124959016371425 21.0237500000000033   T   T   T
 10.9711333675240681  3.8124959016371425 21.0237500000000033   T   T   T
  5.7894185076645552  9.9124893442565689 21.0237500000000033   T   T   T
 11.0367246948640592  9.9124893442565689 21.0237500000000033   T   T   T
 16.2840308820635649  9.9124893442565689 21.0237500000000033   T   T   T
  5.8550098350045499 16.0124827868759922 21.0237500000000033   T   T   T
 11.1023160222040520 16.0124827868759922 21.0237500000000033   T   T   T
 16.3496222094035559 16.0124827868759922 21.0237500000000068   T   T   T
  5.9206011623445436 22.1124762294954209 21.0237500000000033   T   T   T
 11.1679073495440484 22.1124762294954209 21.0237500000000033   T   T   T
 16.4152135367435541 22.1124762294954209 21.0237500000000068   T   T   T
  3.1165719185598073  5.3374942622919992 21.0237500000000033   T   T   T
  8.3638781057593139  5.3374942622919992 21.0237500000000033   T   T   T
 13.6111842929588178  5.3374942622919992 21.0237500000000033   T   T   T
  8.4294694330993050 11.4374877049114261 21.0237500000000033   T   T   T
 13.6767756202988053 11.4374877049114261 21.0237500000000033   T   T   T
  3.1821632458998002 11.4374877049114261 21.0237500000000033   T   T   T
  8.4950607604393014 17.5374811475308512 21.0237500000000033   T   T   T
 13.7423669476388053 17.5374811475308512 21.0237500000000033   T   T   T
 18.9896731348383057 17.5374811475308512 21.0237500000000068   T   T   T
  8.5606520877792924 23.6374745901502799 21.0237500000000033   T   T   T
 13.8079582749787981 23.6374745901502799 21.0237500000000068   T   T   T
 19.0552644621783074 23.6374745901502799 21.0237500000000068   T   T   T
  1.3364232945523744  2.2874975409822857 24.5674999999999990   T   T   T
  6.5837294817518792  2.2874975409822857 24.5674999999999990   T   T   T
 11.8310356689513831  2.2874975409822857 24.5674999999999990   T   T   T
  6.6493208090918738  8.3874909836017117 24.5675000000000026   T   T   T
 11.8966269962913760  8.3874909836017117 24.5675000000000026   T   T   T
 17.1439331834908799  8.3874909836017117 24.5675000000000026   T   T   T
  6.7149121364318676 14.4874844262211369 24.5675000000000026   T   T   T
 11.9622183236313688 14.4874844262211369 24.5675000000000026   T   T   T
 17.2095245108308745 14.4874844262211369 24.5675000000000026   T   T   T
  6.7805034637718631 20.5874778688405655 24.5675000000000026   T   T   T
 12.0278096509713635 20.5874778688405655 24.5675000000000026   T   T   T
 17.2751158381708692 20.5874778688405655 24.5675000000000061   T   T   T
  3.9764742199871264  3.8124959016371420 24.5674999999999990   T   T   T
  9.2237804071866307  3.8124959016371420 24.5674999999999990   T   T   T
 14.4710865943861400  3.8124959016371420 24.5674999999999990   T   T   T
  9.2893717345266253  9.9124893442565689 24.5674999999999990   T   T   T
 14.5366779217261275  9.9124893442565689 24.5674999999999990   T   T   T
  4.0420655473271196  9.9124893442565689 24.5674999999999990   T   T   T
  9.3549630618666182 16.0124827868759922 24.5674999999999990   T   T   T
 14.6022692490661239 16.0124827868759922 24.5674999999999990   T   T   T
  4.1076568746671143 16.0124827868759922 24.5674999999999990   T   T   T
  9.4205543892066146 22.1124762294954209 24.5674999999999990   T   T   T
 14.6678605764061203 22.1124762294954209 24.5675000000000026   T   T   T
 19.9151667636056260 22.1124762294954209 24.5675000000000026   T   T   T
  3.9436785563171290  0.7624991803274295 22.2049999999999983   T   T   T
  9.1909847435166334  0.7624991803274295 22.2049999999999983   T   T   T
 14.4382909307161391  0.7624991803274295 22.2049999999999983   T   T   T
  9.2565760708566263  6.8624926229468555 22.2049999999999983   T   T   T
 14.5038822580561337  6.8624926229468555 22.2049999999999983   T   T   T
  4.0092698836571232  6.8624926229468555 22.2049999999999983   T   T   T
  9.3221673981966209 12.9624860655662797 22.2049999999999983   T   T   T
 14.5694735853961284 12.9624860655662797 22.2049999999999983   T   T   T
  4.0748612109971143 12.9624860655662797 22.2049999999999983   T   T   T
  9.3877587255366173 19.0624795081857066 22.2049999999999983   T   T   T
 14.6350649127361230 19.0624795081857066 22.2050000000000018   T   T   T
 19.8823710999356287 19.0624795081857066 22.2050000000000018   T   T   T
  1.3692189582223717  5.3374942622919992 22.2049999999999983   T   T   T
  6.6165251454218765  5.3374942622919992 22.2049999999999983   T   T   T
 11.8638313326213805  5.3374942622919992 22.2049999999999983   T   T   T
  6.6821164727618720 11.4374877049114261 22.2049999999999983   T   T   T
 11.9294226599613715 11.4374877049114261 22.2049999999999983   T   T   T
 17.1767288471608772 11.4374877049114261 22.2049999999999983   T   T   T
  6.7477078001018649 17.5374811475308512 22.2049999999999983   T   T   T
 11.9950139873013661 17.5374811475308512 22.2049999999999983   T   T   T
 17.2423201745008718 17.5374811475308512 22.2050000000000018   T   T   T
  6.8132991274418586 23.6374745901502799 22.2049999999999983   T   T   T
 12.0606053146413608 23.6374745901502799 22.2050000000000018   T   T   T
 17.3079115018408665 23.6374745901502799 22.2050000000000018   T   T   T
  1.3364232945523751  2.2874975409822866 19.8425000000000011   T   T   T
  6.5837294817518810  2.2874975409822866 19.8425000000000011   T   T   T
 11.8310356689513885  2.2874975409822866 19.8425000000000011   T   T   T
  6.6493208090918738  8.3874909836017117 19.8425000000000011   T   T   T
 11.8966269962913760  8.3874909836017117 19.8425000000000011   T   T   T
 17.1439331834908799  8.3874909836017117 19.8425000000000011   T   T   T
  6.7149121364318685 14.4874844262211386 19.8425000000000011   T   T   T
 11.9622183236313759 14.4874844262211386 19.8425000000000011   T   T   T
 17.2095245108308745 14.4874844262211386 19.8425000000000011   T   T   T
  6.7805034637718631 20.5874778688405691 19.8425000000000011   T   T   T
 12.0278096509713706 20.5874778688405691 19.8425000000000011   T   T   T
 17.2751158381708692 20.5874778688405691 19.8425000000000047   T   T   T
  3.9764742199871268  3.8124959016371425 19.8425000000000011   T   T   T
  9.2237804071866307  3.8124959016371425 19.8425000000000011   T   T   T
 14.4710865943861400  3.8124959016371425 19.8425000000000011   T   T   T
  9.2893717345266253  9.9124893442565689 19.8425000000000011   T   T   T
 14.5366779217261275  9.9124893442565689 19.8425000000000011   T   T   T
  4.0420655473271188  9.9124893442565689 19.8425000000000011   T   T   T
  9.3549630618666182 16.0124827868759958 19.8425000000000047   T   T   T
 14.6022692490661257 16.0124827868759958 19.8425000000000047   T   T   T
  4.1076568746671143 16.0124827868759958 19.8425000000000047   T   T   T
  9.4205543892066110 22.1124762294954245 19.8425000000000011   T   T   T
 14.6678605764061203 22.1124762294954245 19.8425000000000047   T   T   T
 19.9151667636056260 22.1124762294954245 19.8425000000000047   T   T   T
  3.9436785563171299  0.7624991803274301 17.4799999999999969   T   T   T
  9.1909847435166334  0.7624991803274301 17.4799999999999969   T   T   T
 14.4382909307161409  0.7624991803274301 17.4799999999999969   T   T   T
  9.2565760708566280  6.8624926229468555 17.4799999999999969   T   T   T
 14.5038822580561302  6.8624926229468555 17.4799999999999969   T   T   T
  4.0092698836571241  6.8624926229468555 17.4799999999999969   T   T   T
  9.3221673981966209 12.9624860655662832 17.4799999999999969   T   T   T
 14.5694735853961284 12.9624860655662832 17.4799999999999969   T   T   T
  4.0748612109971161 12.9624860655662832 17.4799999999999969   T   T   T
  9.3877587255366155 19.0624795081857101 17.4799999999999969   T   T   T
 14.6350649127361248 19.0624795081857101 17.4800000000000004   T   T   T
 19.8823710999356287 19.0624795081857101 17.4800000000000004   T   T   T
  1.3692189582223717  5.3374942622920001 17.4800000000000004   T   T   T
  6.6165251454218756  5.3374942622920001 17.4800000000000004   T   T   T
 11.8638313326213822  5.3374942622920001 17.4800000000000004   T   T   T
  6.6821164727618720 11.4374877049114261 17.4799999999999969   T   T   T
 11.9294226599613715 11.4374877049114261 17.4799999999999969   T   T   T
 17.1767288471608772 11.4374877049114261 17.4799999999999969   T   T   T
  6.7477078001018658 17.5374811475308512 17.4800000000000004   T   T   T
 11.9950139873013732 17.5374811475308512 17.4800000000000004   T   T   T
 17.2423201745008718 17.5374811475308512 17.4800000000000040   T   T   T
  6.8132991274418595 23.6374745901502799 17.4799999999999969   T   T   T
 12.0606053146413679 23.6374745901502799 17.4800000000000004   T   T   T
 17.3079115018408665 23.6374745901502799 17.4800000000000004   T   T   T
  9.3553088265643929 12.0178975287427505 27.5487500000000054   T   T   T
 11.7553088265643915 12.0178975287427505 27.5487500000000054   T   T   T
