Ni Mo C  Ir
 1.0000000000000000
    12.4450793488832367    0.0000000000000000    0.0000000000000008
     3.7335238046649710   28.0221626574395586   -0.0000000000000045
     0.0000000000000000    0.0000000000000000   29.0890605304822998
 Ni  Mo  C   Ir 
 260 112  56   4
Selective dynamics
Cartesian
 14.9340952186598876 22.9925437189247717  8.2992024220495644   F   F   F
 12.4450793488832385 22.9925437189247681  8.2992024220495626   F   F   F
 13.6895872837715622 20.8369927452755768  8.2992024220495662   F   F   F
 14.9340952186598859 18.6814417716263854  8.2992024220495697   F   F   F
  9.9560634791065930 22.9925437189247717  8.2992024220495644   F   F   F
 11.2005714139949131 20.8369927452755732  8.2992024220495608   F   F   F
 12.4450793488832403 18.6814417716263783  8.2992024220495644   F   F   F
 13.6895872837715640 16.5258907979771763  8.2992024220495626   F   F   F
  7.4670476093299420 22.9925437189247681  8.2992024220495626   F   F   F
  8.7115555442182639 20.8369927452755697  8.2992024220495626   F   F   F
  9.9560634791065894 18.6814417716263712  8.2992024220495644   F   F   F
 11.2005714139949148 16.5258907979771799  8.2992024220495626   F   F   F
 12.4450793488832367 14.3703398243279832  8.2992024220495679   F   F   F
 13.6895872837715604 12.2147888506787847  8.2992024220495644   F   F   F
  4.9780317395532947 22.9925437189247717  8.2992024220495626   F   F   F
  6.2225396744416184 20.8369927452755768  8.2992024220495626   F   F   F
  7.4670476093299429 18.6814417716263783  8.2992024220495608   F   F   F
  8.7115555442182675 16.5258907979771763  8.2992024220495644   F   F   F
  9.9560634791065876 14.3703398243279832  8.2992024220495697   F   F   F
 11.2005714139949148 12.2147888506787865  8.2992024220495626   F   F   F
 12.4450793488832385 10.0592378770295880  8.2992024220495644   F   F   F
  1.2445079348883241  7.9036869033803931  8.2992024220495626   F   F   F
  3.7335238046649715 20.8369927452755768  8.2992024220495626   F   F   F
  4.9780317395532965 18.6814417716263854  8.2992024220495608   F   F   F
  6.2225396744416219 16.5258907979771834  8.2992024220495644   F   F   F
  7.4670476093299429 14.3703398243279814  8.2992024220495644   F   F   F
  8.7115555442182675 12.2147888506787865  8.2992024220495644   F   F   F
  9.9560634791065912 10.0592378770295898  8.2992024220495644   F   F   F
 11.2005714139949166  7.9036869033803940  8.2992024220495679   F   F   F
 12.4450793488832403  5.7481359297311947  8.2992024220495679   F   F   F
  3.7335238046649719 16.5258907979771799  8.2992024220495626   F   F   F
  4.9780317395532947 14.3703398243279832  8.2992024220495644   F   F   F
  6.2225396744416210 12.2147888506787901  8.2992024220495626   F   F   F
  7.4670476093299420 10.0592378770295863  8.2992024220495662   F   F   F
  8.7115555442182657  7.9036869033803914  8.2992024220495644   F   F   F
  9.9560634791065930  5.7481359297311947  8.2992024220495679   F   F   F
 11.2005714139949166  3.5925849560819958  8.2992024220495679   F   F   F
 12.4450793488832403  1.4370339824327998  8.2992024220495662   F   F   F
  2.4890158697766469 14.3703398243279832  8.2992024220495644   F   F   F
  3.7335238046649710 12.2147888506787883  8.2992024220495662   F   F   F
  4.9780317395532956 10.0592378770295880  8.2992024220495644   F   F   F
  6.2225396744416201  7.9036869033803914  8.2992024220495644   F   F   F
  7.4670476093299420  5.7481359297311947  8.2992024220495662   F   F   F
  8.7115555442182675  3.5925849560819958  8.2992024220495662   F   F   F
  9.9560634791065894  1.4370339824327982  8.2992024220495662   F   F   F
 14.9340952186598859 27.3036456662231650  8.2992024220495608   F   F   F
  2.4890158697766473 10.0592378770295898  8.2992024220495644   F   F   F
  3.7335238046649724  7.9036869033803931  8.2992024220495626   F   F   F
  4.9780317395532947  5.7481359297311947  8.2992024220495662   F   F   F
  6.2225396744416184  3.5925849560819976  8.2992024220495662   F   F   F
  7.4670476093299438  1.4370339824327993  8.2992024220495662   F   F   F
 12.4450793488832367 27.3036456662231615  8.2992024220495644   F   F   F
 13.6895872837715658 25.1480946925739666  8.2992024220495608   F   F   F
  2.4890158697766473  5.7481359297311947  8.2992024220495662   F   F   F
  3.7335238046649719  3.5925849560819967  8.2992024220495662   F   F   F
  4.9780317395532956  1.4370339824328004  8.2992024220495662   F   F   F
  9.9560634791065894 27.3036456662231650  8.2992024220495644   F   F   F
 11.2005714139949148 25.1480946925739666  8.2992024220495626   F   F   F
  1.2445079348883243  3.5925849560819976  8.2992024220495644   F   F   F
  2.4890158697766478  1.4370339824328000  8.2992024220495662   F   F   F
  7.4670476093299420 27.3036456662231615  8.2992024220495644   F   F   F
  8.7115555442182675 25.1480946925739666  8.2992024220495608   F   F   F
  4.9780317395532947 27.3036456662231650  8.2992024220495626   F   F   F
  6.2225396744416201 25.1480946925739666  8.2992024220495608   F   F   F
  3.7335238046649728 25.1480946925739666  8.2992024220495608   F   F   F
 14.9340952186598859 21.5555097364919739 10.3314753695970474   F   F   F
 12.4450793488832403 21.5555097364919774 10.3314753695970492   F   F   F
 13.6895872837715622 19.3999587628427825 10.3314753695970492   F   F   F
  2.4890158697766522 17.2444077891935876 10.3314753695970492   F   F   F
  9.9560634791065894 21.5555097364919739 10.3314753695970492   F   F   F
 11.2005714139949148 19.3999587628427825 10.3314753695970492   F   F   F
 12.4450793488832385 17.2444077891935805 10.3314753695970456   F   F   F
 13.6895872837715604 15.0888568155443838 10.3314753695970492   F   F   F
  7.4670476093299403 21.5555097364919739 10.3314753695970492   F   F   F
  8.7115555442182639 19.3999587628427754 10.3314753695970474   F   F   F
  9.9560634791065912 17.2444077891935841 10.3314753695970492   F   F   F
 11.2005714139949113 15.0888568155443838 10.3314753695970509   F   F   F
 12.4450793488832350 12.9333058418951836 10.3314753695970509   F   F   F
 13.6895872837715658 10.7777548682459869 10.3314753695970509   F   F   F
  4.9780317395532947 21.5555097364919739 10.3314753695970474   F   F   F
  6.2225396744416201 19.3999587628427825 10.3314753695970474   F   F   F
  7.4670476093299429 17.2444077891935770 10.3314753695970492   F   F   F
  8.7115555442182657 15.0888568155443856 10.3314753695970492   F   F   F
  9.9560634791065894 12.9333058418951854 10.3314753695970492   F   F   F
 11.2005714139949148 10.7777548682459887 10.3314753695970492   F   F   F
 12.4450793488832421  8.6222038945967903 10.3314753695970509   F   F   F
  1.2445079348883232  6.4666529209475936 10.3314753695970492   F   F   F
  3.7335238046649728 19.3999587628427825 10.3314753695970474   F   F   F
  4.9780317395532965 17.2444077891935805 10.3314753695970456   F   F   F
  6.2225396744416201 15.0888568155443838 10.3314753695970509   F   F   F
  7.4670476093299429 12.9333058418951854 10.3314753695970492   F   F   F
  8.7115555442182657 10.7777548682459887 10.3314753695970492   F   F   F
  9.9560634791065930  8.6222038945967920 10.3314753695970509   F   F   F
 11.2005714139949184  6.4666529209475971 10.3314753695970509   F   F   F
 12.4450793488832350  4.3111019472983969 10.3314753695970509   F   F   F
  3.7335238046649719 15.0888568155443838 10.3314753695970492   F   F   F
  4.9780317395532938 12.9333058418951854 10.3314753695970492   F   F   F
  6.2225396744416201 10.7777548682459905 10.3314753695970492   F   F   F
  7.4670476093299420  8.6222038945967903 10.3314753695970492   F   F   F
  8.7115555442182675  6.4666529209475936 10.3314753695970509   F   F   F
  9.9560634791065912  4.3111019472983969 10.3314753695970509   F   F   F
 11.2005714139949148  2.1555509736491985 10.3314753695970509   F   F   F
 12.4450793488832403  0.0000000000000031 10.3314753695970509   F   F   F
  2.4890158697766465 12.9333058418951854 10.3314753695970492   F   F   F
  3.7335238046649719 10.7777548682459905 10.3314753695970492   F   F   F
  4.9780317395532965  8.6222038945967920 10.3314753695970492   F   F   F
  6.2225396744416184  6.4666529209475971 10.3314753695970509   F   F   F
  7.4670476093299429  4.3111019472983951 10.3314753695970509   F   F   F
  8.7115555442182675  2.1555509736491993 10.3314753695970492   F   F   F
  9.9560634791065876  0.0000000000000031 10.3314753695970509   F   F   F
 14.9340952186598841 25.8666116837903637 10.3314753695970474   F   F   F
  2.4890158697766482  8.6222038945967920 10.3314753695970492   F   F   F
  3.7335238046649719  6.4666529209475971 10.3314753695970509   F   F   F
  4.9780317395532947  4.3111019472983960 10.3314753695970509   F   F   F
  6.2225396744416210  2.1555509736491998 10.3314753695970492   F   F   F
  7.4670476093299420  0.0000000000000016 10.3314753695970509   F   F   F
 12.4450793488832367 25.8666116837903672 10.3314753695970474   F   F   F
 13.6895872837715640 23.7110607101411688 10.3314753695970456   F   F   F
  2.4890158697766473  4.3111019472983960 10.3314753695970509   F   F   F
  3.7335238046649710  2.1555509736491989 10.3314753695970509   F   F   F
  4.9780317395532947  0.0000000000000023 10.3314753695970509   F   F   F
  9.9560634791065912 25.8666116837903672 10.3314753695970474   F   F   F
 11.2005714139949166 23.7110607101411652 10.3314753695970438   F   F   F
  1.2445079348883237  2.1555509736492002 10.3314753695970474   F   F   F
  2.4890158697766465  0.0000000000000027 10.3314753695970474   F   F   F
  7.4670476093299438 25.8666116837903672 10.3314753695970474   F   F   F
  8.7115555442182675 23.7110607101411688 10.3314753695970474   F   F   F
  4.9780317395532938 25.8666116837903672 10.3314753695970474   F   F   F
  6.2225396744416184 23.7110607101411652 10.3314753695970438   F   F   F
  3.7335238046649710 23.7110607101411652 10.3314753695970438   F   F   F
 14.9340952186598912 24.4295777013575766 12.3637483171445322   T   T   T
 12.4450793488832439 24.4295777013575766 12.3637483171445304   T   T   T
 13.6895872837715622 22.2740267277083817 12.3637483171445304   T   T   T
 14.9340952186598912 20.1184757540591796 12.3637483171445339   T   T   T
  9.9560634791065930 24.4295777013575730 12.3637483171445339   T   T   T
 11.2005714139949148 22.2740267277083817 12.3637483171445322   T   T   T
 12.4450793488832403 20.1184757540591796 12.3637483171445304   T   T   T
 13.6895872837715658 17.9629247804099776 12.3637483171445339   T   T   T
  7.4670476093299420 24.4295777013575730 12.3637483171445339   T   T   T
  8.7115555442182675 22.2740267277083710 12.3637483171445304   T   T   T
  9.9560634791065894 20.1184757540591725 12.3637483171445286   T   T   T
 11.2005714139949131 17.9629247804099812 12.3637483171445322   T   T   T
 12.4450793488832403 15.8073738067607827 12.3637483171445304   T   T   T
 13.6895872837715640 13.6518228331115825 12.3637483171445304   T   T   T
  4.9780317395532965 24.4295777013575730 12.3637483171445304   T   T   T
  6.2225396744416201 22.2740267277083817 12.3637483171445304   T   T   T
  7.4670476093299456 20.1184757540591761 12.3637483171445286   T   T   T
  8.7115555442182657 17.9629247804099776 12.3637483171445339   T   T   T
  9.9560634791065912 15.8073738067607827 12.3637483171445304   T   T   T
 11.2005714139949166 13.6518228331115861 12.3637483171445322   T   T   T
 12.4450793488832403 11.4962718594623876 12.3637483171445304   T   T   T
 13.6895872837715640  9.3407208858131909 12.3637483171445339   T   T   T
  3.7335238046649710 22.2740267277083817 12.3637483171445304   T   T   T
  4.9780317395532974 20.1184757540591796 12.3637483171445268   T   T   T
  6.2225396744416201 17.9629247804099812 12.3637483171445286   T   T   T
  7.4670476093299447 15.8073738067607863 12.3637483171445268   T   T   T
  8.7115555442182675 13.6518228331115861 12.3637483171445322   T   T   T
  9.9560634791065912 11.4962718594623876 12.3637483171445304   T   T   T
 11.2005714139949184  9.3407208858131927 12.3637483171445304   T   T   T
 12.4450793488832367  7.1851699121639969 12.3637483171445357   T   T   T
  3.7335238046649724 17.9629247804099812 12.3637483171445304   T   T   T
  4.9780317395532956 15.8073738067607827 12.3637483171445322   T   T   T
  6.2225396744416219 13.6518228331115896 12.3637483171445304   T   T   T
  7.4670476093299420 11.4962718594623876 12.3637483171445304   T   T   T
  8.7115555442182693  9.3407208858131927 12.3637483171445304   T   T   T
  9.9560634791065930  7.1851699121639934 12.3637483171445322   T   T   T
 11.2005714139949148  5.0296189385147967 12.3637483171445322   T   T   T
 12.4450793488832421  2.8740679648656009 12.3637483171445322   T   T   T
  2.4890158697766482 15.8073738067607863 12.3637483171445268   T   T   T
  3.7335238046649728 13.6518228331115861 12.3637483171445322   T   T   T
  4.9780317395532956 11.4962718594623894 12.3637483171445304   T   T   T
  6.2225396744416201  9.3407208858131927 12.3637483171445304   T   T   T
  7.4670476093299438  7.1851699121639934 12.3637483171445322   T   T   T
  8.7115555442182675  5.0296189385147976 12.3637483171445322   T   T   T
  9.9560634791065912  2.8740679648656009 12.3637483171445322   T   T   T
 11.2005714139949166  0.7185169912164026 12.3637483171445339   T   T   T
  2.4890158697766482 11.4962718594623894 12.3637483171445286   T   T   T
  3.7335238046649728  9.3407208858131927 12.3637483171445322   T   T   T
  4.9780317395532947  7.1851699121639934 12.3637483171445304   T   T   T
  6.2225396744416201  5.0296189385147985 12.3637483171445322   T   T   T
  7.4670476093299447  2.8740679648655996 12.3637483171445322   T   T   T
  8.7115555442182675  0.7185169912164026 12.3637483171445322   T   T   T
 13.6895872837715640 26.5851286750067644 12.3637483171445268   T   T   T
  2.4890158697766482  7.1851699121639934 12.3637483171445304   T   T   T
  3.7335238046649710  5.0296189385147967 12.3637483171445322   T   T   T
  4.9780317395532947  2.8740679648656005 12.3637483171445322   T   T   T
  6.2225396744416219  0.7185169912164018 12.3637483171445322   T   T   T
 11.2005714139949148 26.5851286750067644 12.3637483171445286   T   T   T
  1.2445079348883246  5.0296189385147994 12.3637483171445322   T   T   T
  2.4890158697766478  2.8740679648656000 12.3637483171445322   T   T   T
  3.7335238046649724  0.7185169912164022 12.3637483171445322   T   T   T
  8.7115555442182675 26.5851286750067644 12.3637483171445286   T   T   T
  1.2445079348883237  0.7185169912164026 12.3637483171445304   T   T   T
  6.2225396744416184 26.5851286750067644 12.3637483171445268   T   T   T
  3.7335238046649706 26.5851286750067644 12.3637483171445268   T   T   T
 14.9340952186598876 22.9925437189247752 14.3960212646920134   T   T   T
 12.4450793488832403 22.9925437189247717 14.3960212646920134   T   T   T
 13.6895872837715640 20.8369927452755803 14.3960212646920134   T   T   T
 14.9340952186598912 18.6814417716263819 14.3960212646920152   T   T   T
  9.9560634791065930 22.9925437189247717 14.3960212646920134   T   T   T
 11.2005714139949113 20.8369927452755803 14.3960212646920169   T   T   T
 12.4450793488832367 18.6814417716263783 14.3960212646920187   T   T   T
 13.6895872837715622 16.5258907979771799 14.3960212646920116   T   T   T
  7.4670476093299420 22.9925437189247717 14.3960212646920134   T   T   T
  8.7115555442182657 20.8369927452755732 14.3960212646920134   T   T   T
  9.9560634791065894 18.6814417716263748 14.3960212646920152   T   T   T
 11.2005714139949148 16.5258907979771799 14.3960212646920116   T   T   T
 12.4450793488832367 14.3703398243279867 14.3960212646920152   T   T   T
 13.6895872837715586 12.2147888506787883 14.3960212646920152   T   T   T
  4.9780317395532965 22.9925437189247752 14.3960212646920098   T   T   T
  6.2225396744416201 20.8369927452755803 14.3960212646920134   T   T   T
  7.4670476093299447 18.6814417716263819 14.3960212646920098   T   T   T
  8.7115555442182675 16.5258907979771870 14.3960212646920116   T   T   T
  9.9560634791065894 14.3703398243279867 14.3960212646920152   T   T   T
 11.2005714139949148 12.2147888506787883 14.3960212646920116   T   T   T
 12.4450793488832385 10.0592378770295934 14.3960212646920152   T   T   T
  1.2445079348883246  7.9036869033803940 14.3960212646920116   T   T   T
  3.7335238046649732 20.8369927452755803 14.3960212646920134   T   T   T
  4.9780317395532983 18.6814417716263819 14.3960212646920098   T   T   T
  6.2225396744416201 16.5258907979771870 14.3960212646920152   T   T   T
  7.4670476093299456 14.3703398243279867 14.3960212646920152   T   T   T
  8.7115555442182693 12.2147888506787865 14.3960212646920152   T   T   T
  9.9560634791065930 10.0592378770295916 14.3960212646920152   T   T   T
 11.2005714139949131  7.9036869033803976 14.3960212646920169   T   T   T
 12.4450793488832439  5.7481359297311982 14.3960212646920169   T   T   T
  3.7335238046649728 16.5258907979771870 14.3960212646920152   T   T   T
  4.9780317395532965 14.3703398243279938 14.3960212646920152   T   T   T
  6.2225396744416219 12.2147888506787954 14.3960212646920116   T   T   T
  7.4670476093299438 10.0592378770295898 14.3960212646920152   T   T   T
  8.7115555442182711  7.9036869033803940 14.3960212646920134   T   T   T
  9.9560634791065894  5.7481359297311974 14.3960212646920169   T   T   T
 11.2005714139949166  3.5925849560820007 14.3960212646920169   T   T   T
 12.4450793488832421  1.4370339824328013 14.3960212646920169   T   T   T
  2.4890158697766491 14.3703398243279867 14.3960212646920152   T   T   T
  3.7335238046649719 12.2147888506787901 14.3960212646920116   T   T   T
  4.9780317395532974 10.0592378770295916 14.3960212646920152   T   T   T
  6.2225396744416210  7.9036869033803940 14.3960212646920116   T   T   T
  7.4670476093299429  5.7481359297311956 14.3960212646920134   T   T   T
  8.7115555442182675  3.5925849560820007 14.3960212646920169   T   T   T
  9.9560634791065947  1.4370339824328013 14.3960212646920169   T   T   T
 11.2005714139949148 -0.7185169912163940 14.3960212646920134   T   T   T
  2.4890158697766491 10.0592378770295934 14.3960212646920152   T   T   T
  3.7335238046649719  7.9036869033803940 14.3960212646920116   T   T   T
  4.9780317395532965  5.7481359297311947 14.3960212646920134   T   T   T
  6.2225396744416210  3.5925849560820016 14.3960212646920169   T   T   T
  7.4670476093299447  1.4370339824328029 14.3960212646920169   T   T   T
  8.7115555442182693 -0.7185169912163948 14.3960212646920169   T   T   T
 13.6895872837715658 25.1480946925739701 14.3960212646920134   T   T   T
  2.4890158697766482  5.7481359297311965 14.3960212646920134   T   T   T
  3.7335238046649737  3.5925849560820007 14.3960212646920169   T   T   T
  4.9780317395532956  1.4370339824328013 14.3960212646920169   T   T   T
  6.2225396744416201 -0.7185169912163932 14.3960212646920134   T   T   T
 11.2005714139949184 25.1480946925739701 14.3960212646920134   T   T   T
  1.2445079348883248  3.5925849560820029 14.3960212646920134   T   T   T
  2.4890158697766482  1.4370339824328029 14.3960212646920134   T   T   T
  3.7335238046649728 -0.7185169912163948 14.3960212646920169   T   T   T
  8.7115555442182693 25.1480946925739737 14.3960212646920098   T   T   T
  1.2445079348883257 -0.7185169912163945 14.3960212646920134   T   T   T
  6.2225396744416193 25.1480946925739701 14.3960212646920134   T   T   T
  3.7335238046649724 25.1480946925739701 14.3960212646920134   T   T   T
 -0.6397780451301207 20.3899690088637549 20.1209449640768057   T   T   T
  5.2271879336291187 24.3931351027836953 20.1209449640768092   T   T   T
  0.0713693462346381 12.3836368210238845 20.1209449640768057   T   T   T
  5.9383353249938731 16.3868029149438179 20.1209449640768057   T   T   T
 -5.0844492411598479  0.3741385392640742 20.1209449640768092   T   T   T
  0.7825167375993924  4.3773046331840133 20.1209449640768092   T   T   T
 -5.7955966325246049  8.3804707271039476 20.1209449640768057   T   T   T
 -2.4843999053234787 19.6492514252268826 22.3882629525318571   T   T   T
  3.3825660734357572 23.6524175191468231 22.3882629525318571   T   T   T
 -1.7732525139587256 11.6429192373870105 22.3882629525318571   T   T   T
  4.0937134648005191 15.6460853313069492 22.3882629525318571   T   T   T
  5.5160082475300296 -0.3665790443727965 22.3882629525318606   T   T   T
 -1.0621051225939686  3.6365870495471380 22.3882629525318606   T   T   T
  4.8048608561652699  7.6397531434670753 22.3882629525318606   T   T   T
  2.2848062707072470 20.0828313382369110 20.3748845787837745   T   T   T
 -4.2933070994167508 24.0859974321568444 20.3748845787837709   T   T   T
  2.9959536620720026 12.0764991503970389 20.3748845787837745   T   T   T
 -3.5821597080519951 16.0796652443169741 20.3748845787837709   T   T   T
 -2.1598649253224811  0.0670008686372277 20.3748845787837745   T   T   T
  3.7071010534367588  4.0701669625571650 20.3748845787837780   T   T   T
 -2.8710123166872372  8.0733330564770984 20.3748845787837780   T   T   T
  4.8493631106862516 21.4774518456247776 20.8767176268951609   T   T   T
 -1.7287502594377484 25.4806179395447181 20.8767176268951573   T   T   T
  5.5605105020510059 13.4711196577849055 20.8767176268951573   T   T   T
 -1.0176028680729869 17.4742857517048407 20.8767176268951573   T   T   T
  0.4046919146565262  1.4616213760250962 20.8767176268951609   T   T   T
 -6.1734214554674711  5.4647874699450316 20.8767176268951609   T   T   T
 -0.3064554767082335  9.4679535638649686 20.8767176268951609   T   T   T
 -3.2043348851091276 18.9953485014758847 19.6191119159654193   T   T   T
  2.6626310936501123 22.9985145953958252 19.6191119159654228   T   T   T
 -2.4931874937443697 10.9890163136360179 19.6191119159654228   T   T   T
  3.3737784850148680 14.9921824075559549 19.6191119159654228   T   T   T
 -3.9154822764738864 27.0016806893157622 19.6191119159654228   T   T   T
 -1.7820401023796137  2.9826841257961445 19.6191119159654228   T   T   T
  4.0849258763796250  6.9858502197160819 19.6191119159654228   T   T   T
  4.4715382877433854 18.5617685884658634 21.6324902897135090   T   T   T
 -2.1065750823806173 22.5649346823857968 21.6324902897135090   T   T   T
  5.1826856791081406 10.5554364006259913 21.6324902897135125   T   T   T
 -1.3954276910158556 14.5586024945459265 21.6324902897135090   T   T   T
  3.7603908963786297 26.5681007763057373 21.6324902897135090   T   T   T
  5.8938330704728985  2.5491042127861196 21.6324902897135125   T   T   T
 -0.6842802996510980  6.5522703067060544 21.6324902897135090   T   T   T
  1.9069814477643789 17.1671480810779933 21.1306572416021261   T   T   T
  7.7739474265236179 21.1703141749979373 21.1306572416021297   T   T   T
  2.6181288391291373  9.1608158932381247 21.1306572416021297   T   T   T
 -3.9599845309948609 13.1639819871580563 21.1306572416021261   T   T   T
  1.1958340563996246 25.1734802689178707 21.1306572416021261   T   T   T
  3.3292762304938930  1.1544837053982515 21.1306572416021261   T   T   T
 -3.2488371396301039  5.1576497993181860 21.1306572416021261   T   T   T
  7.3961226035807535 18.2546309178390160 21.8864299044204742   T   T   T
  0.8180092334567548 22.2577970117589565 21.8864299044204742   T   T   T
 -4.3378093539377254 10.2482987299991439 21.8864299044204742   T   T   T
  1.5291566248215089 14.2514648239190791 21.8864299044204742   T   T   T
  6.6849752122159973 26.2609631056788970 21.8864299044204742   T   T   T
 -3.6266619625729750  2.2419665421592709 21.8864299044204742   T   T   T
  2.2403040161862662  6.2451326360792079 21.8864299044204742   T   T   T
 -4.2842973407531328 20.0432037557396114 17.0978543128034062   T   T   T
  1.5826686380061046 24.0463698496595484 17.0978543128034062   T   T   T
 -3.5731499493883740 12.0368715678997393 17.0978543128034026   T   T   T
  2.2938160293708592 16.0400376618196709 17.0978543128034062   T   T   T
 -8.7289685367828618  0.0273732861399261 17.0978543128034097   T   T   T
 -2.8620025580236232  4.0305393800598637 17.0978543128034062   T   T   T
 -9.4401159281476215  8.0337054739797988 17.0978543128034026   T   T   T
 -6.1289192009464948 19.3024861721027357 19.3651723012584505   T   T   T
 -0.2619532221872571 23.3056522660226726 19.3651723012584505   T   T   T
 -5.4177718095817387 11.2961539842628600 19.3651723012584540   T   T   T
  0.4491941691775008 15.2993200781827987 19.3651723012584505   T   T   T
  1.8714889519070144 -0.7133442974969447 19.3651723012584540   T   T   T
 -4.7066244182169834  3.2898217964229892 19.3651723012584540   T   T   T
  1.1603415605422565  7.2929878903429275 19.3651723012584540   T   T   T
 -1.3597130249157683 19.7360660851127605 17.3517939275103679   T   T   T
 -7.9378263950397674 23.7392321790326974 17.3517939275103679   T   T   T
 -0.6485656335510117 11.7297338972728920 17.3517939275103679   T   T   T
 -7.2266790036750095 15.7328999911928253 17.3517939275103679   T   T   T
 -5.8043842209454946 -0.2797643844869201 17.3517939275103750   T   T   T
  0.0625817578137438  3.7234017094330185 17.3517939275103714   T   T   T
 -6.5155316123102507  7.7265678033529523 17.3517939275103714   T   T   T
  1.2048438150632390 21.1306865925006271 17.8536269756217578   T   T   T
 -5.3732695550607641 25.1338526864205676 17.8536269756217543   T   T   T
  1.9159912064279914 13.1243544046607585 17.8536269756217543   T   T   T
 -4.6621221636960026 17.1275204985806937 17.8536269756217543   T   T   T
 -3.2398273809664895  1.1148561229009477 17.8536269756217578   T   T   T
 -9.8179407510904859  5.1180222168208829 17.8536269756217578   T   T   T
 -3.9509747723312456  9.1211883107408198 17.8536269756217543   T   T   T
 -6.8488541807321379 18.6485832483517378 16.5960212646920198   T   T   T
 -0.9818882019728981 22.6517493422716818 16.5960212646920198   T   T   T
 -6.1377067893673853 10.6422510605118692 16.5960212646920198   T   T   T
 -0.2707408106081453 14.6454171544318097 16.5960212646920198   T   T   T
 -7.5600015720968994 26.6549154361916152 16.5960212646920198   T   T   T
 -5.4265593980026292  2.6359188726719962 16.5960212646920198   T   T   T
  0.4404065807566118  6.6390849665919358 16.5960212646920233   T   T   T
  0.8270189921203730 18.2150033353417165 18.6093996384401059   T   T   T
 -5.7510943780036285 22.2181694292616498 18.6093996384401059   T   T   T
  1.5381663834851271 10.2086711475018426 18.6093996384401095   T   T   T
 -5.0399469866388689 14.2118372414217760 18.6093996384401059   T   T   T
  0.1158716007556158 26.2213355231815868 18.6093996384401059   T   T   T
  2.2493137748498873  2.2023389596619709 18.6093996384401095   T   T   T
 -4.3287995952741136  6.2055050535819056 18.6093996384401095   T   T   T
 -1.7375378478586359 16.8203828279538463 18.1075665903287231   T   T   T
  4.1294281309006076 20.8235489218737868 18.1075665903287266   T   T   T
 -1.0263904564938791  8.8140506401139760 18.1075665903287231   T   T   T
 -7.6045038266178739 12.8172167340339112 18.1075665903287195   T   T   T
 -2.4486852392233893 24.8267150157937238 18.1075665903287231   T   T   T
 -0.3152430651291188  0.8077184522741031 18.1075665903287266   T   T   T
 -6.8933564352531178  4.8108845461940382 18.1075665903287231   T   T   T
  3.7516033079577351 17.9078656647148691 18.8633392531470676   T   T   T
 -2.8265100621662604 21.9110317586348060 18.8633392531470676   T   T   T
 -7.9823286495607437  9.9015334768749952 18.8633392531470676   T   T   T
 -2.1153626708015061 13.9046995707949304 18.8633392531470676   T   T   T
  3.0404559165929781 25.9141978525547430 18.8633392531470712   T   T   T
 -7.2711812581959911  1.8952012890351226 18.8633392531470676   T   T   T
 -1.4042152794367500  5.8983673829550591 18.8633392531470676   T   T   T
  0.6336017013171307 18.7785585449708776 20.6258011028394677   T   T   T
  6.5005676800763688 22.7817246388908181 20.6258011028394677   T   T   T
  1.3447490926818857 10.7722263571310037 20.6258011028394712   T   T   T
 -5.2333642774421083 14.7753924510509407 20.6258011028394641   T   T   T
 -0.0775456900476277 26.7848907328107479 20.6258011028394677   T   T   T
  2.0558964840466434  2.7658941692911316 20.6258011028394712   T   T   T
 -4.5222168860773548  6.7690602632110686 20.6258011028394641   T   T   T
  6.1227428571335025 19.8660413817318968 21.3815737656578193   T   T   T
 -0.4553705129904944 23.8692074756518338 21.3815737656578158   T   T   T
  6.8338902484982595 11.8597091938920283 21.3815737656578158   T   T   T
  0.2557768783742627 15.8628752878119599 21.3815737656578122   T   T   T
  1.6780716611037765 -0.1497890878677841 21.3815737656578193   T   T   T
 -4.9000417090202220  3.8533770060521517 21.3815737656578193   T   T   T
  0.9669242697390201  7.8565430999720904 21.3815737656578193   T   T   T
  2.8336861720715056 21.8676244286918688 21.3815737656578158   T   T   T
  8.7006521508307468 25.8707905226118022 21.3815737656578158   T   T   T
  3.5448335634362609 13.8612922408519914 21.3815737656578158   T   T   T
 -3.0332798066877369 17.8644583347719283 21.3815737656578122   T   T   T
 -1.6109850239582233  1.8517939590921835 21.3815737656578193   T   T   T
  4.2559809548010170  5.8549600530121211 21.3815737656578193   T   T   T
 -2.3221324153229812  9.8581261469320562 21.3815737656578158   T   T   T
  3.9226583863791271 16.7769754980109091 20.6258011028394677   T   T   T
 -2.6554549837448707 20.7801415919308425 20.6258011028394641   T   T   T
  4.6338057777438841  8.7706433101710370 20.6258011028394677   T   T   T
 -1.9443075923801134 12.7738094040909722 20.6258011028394641   T   T   T
  3.2115109950143705 24.7833076858507795 20.6258011028394677   T   T   T
 -7.1001261797745974  0.7643111223311619 20.6258011028394641   T   T   T
 -1.2331602010153564  4.7674772162511001 20.6258011028394641   T   T   T
 -3.0109175943058819 18.4317932918467271 17.6027104515660682   T   T   T
  2.8560483844533544 22.4349593857666711 17.6027104515660611   T   T   T
 -2.2997702029411276 10.4254611040068568 17.6027104515660611   T   T   T
 -8.8778835730651213 14.4286271979267937 17.6027104515660611   T   T   T
 -3.7220649856706403 26.4381254796866010 17.6027104515660611   T   T   T
 -1.5886228115763716  2.4191289161669829 17.6027104515660646   T   T   T
 -8.1667361817003652  6.4222950100869181 17.6027104515660646   T   T   T
  2.4782235615104895 19.5192761286077499 18.3584831143844163   T   T   T
 -4.0998898086135078 23.5224422225276868 18.3584831143844127   T   T   T
  3.1893709528752465 11.5129439407678795 18.3584831143844163   T   T   T
 -3.3887424172487526 15.5161100346878111 18.3584831143844092   T   T   T
 -1.9664476345192383 -0.4965543409919322 18.3584831143844163   T   T   T
 -8.5445610046432368  3.5066117529280039 18.3584831143844163   T   T   T
 -2.6775950258839956  7.5097778468479408 18.3584831143844163   T   T   T
 -0.8108331235515069 21.5208591755677183 18.3584831143844163   T   T   T
  5.0561328552077347 25.5240252694876553 18.3584831143844127   T   T   T
 -0.0996857321867513 13.5145269877278462 18.3584831143844163   T   T   T
 -6.6777991023107512 17.5176930816477814 18.3584831143844127   T   T   T
 -5.2555043195812345  1.5050287059680354 18.3584831143844198   T   T   T
  0.6114616591780032  5.5081947998879741 18.3584831143844163   T   T   T
 -5.9666517109459933  9.5113608938079075 18.3584831143844127   T   T   T
  0.2781390907561134 16.4302102448867586 17.6027104515660611   T   T   T
 -6.2999742793678806 20.4333763388066956 17.6027104515660611   T   T   T
  0.9892864821208716  8.4238780570468901 17.6027104515660646   T   T   T
 -5.5888268880031262 12.4270441509668252 17.6027104515660611   T   T   T
 -0.4330083006086443 24.4365424327266325 17.6027104515660611   T   T   T
 -10.7446454753976095  0.4175458692070140 17.6027104515660646   T   T   T
 -4.8776794966383692  4.4207119631269514 17.6027104515660646   T   T   T
  3.3129041371440442 12.0343153847281723 24.1882629525318613   T   T   T
  3.3129041371440442 14.4343153847281709 24.1882629525318613   T   T   T
  5.7129041371440445 12.0343153847281723 24.1882629525318613   T   T   T
  5.7129041371440445 14.4343153847281709 24.1882629525318613   T   T   T
