P  Mo P  Mo P  Mo P  Mo P  Mo P  Mo P  Mo P  Mo P  Mo P  Mo P  Mo P  Mo P  Mo P  Mo P  Mo P  Mo
 1.0000000000000000
     6.4600000000000000    0.0000000000000000    0.0000000000000000
    -3.2299999999999982    5.5945241084474748    0.0000000000000000
     0.0000000000000000    0.0000000000000000   27.2349999999999994
 P   Mo  P   Mo  P   Mo  P   Mo  P   Mo  P   Mo  P   Mo  P   Mo  P   Mo  P   Mo  P   Mo  P   Mo  P   Mo  P   Mo  P   Mo  P   Mo 
   1   1   1   1   1   1   1   1   1   1   1   1   1   1   1   1   1   1   1   1   1   1   1   1   1   1   1   1   1   1   1   1
Selective dynamics
Cartesian
  0.0000000000000000  0.0000000000000000  8.0000000000000000   F   F   F
 -0.0000000001614988  1.8648413695757335  9.6049999999999986   F   F   F
  0.0000000000000002  0.0000000000000003 11.2099999999999991   F   F   F
 -0.0000000001614987  1.8648413695757340 12.8149999999999977   F   F   F
  0.0000000000000004  0.0000000000000007 14.4199999999999982   T   T   T
 -0.0000000001614987  1.8648413695757342 16.0249999999999986   T   T   T
  0.0000000000000006  0.0000000000000010 17.6299999999999955   T   T   T
 -0.0000000001614984  1.8648413695757344 19.2349999999999994   T   T   T
 -1.6149999999999991  2.7972620542237374  8.0000000000000000   F   F   F
 -1.6150000001614979  4.6621034237994712  9.6049999999999986   F   F   F
 -1.6149999999999989  2.7972620542237379 11.2099999999999991   F   F   F
 -1.6150000001614979  4.6621034237994712 12.8149999999999977   F   F   F
 -1.6149999999999987  2.7972620542237383 14.4199999999999982   T   T   T
 -1.6150000001614977  4.6621034237994721 16.0249999999999986   T   T   T
 -1.6149999999999984  2.7972620542237383 17.6299999999999955   T   T   T
 -1.6150000001614975  4.6621034237994721 19.2349999999999994   T   T   T
  3.2300000000000000  0.0000000000000000  8.0000000000000000   F   F   F
  3.2299999998385012  1.8648413695757335  9.6049999999999986   F   F   F
  3.2300000000000000  0.0000000000000003 11.2099999999999991   F   F   F
  3.2299999998385012  1.8648413695757340 12.8149999999999977   F   F   F
  3.2300000000000004  0.0000000000000007 14.4199999999999982   T   T   T
  3.2299999998385012  1.8648413695757342 16.0249999999999986   T   T   T
  3.2300000000000004  0.0000000000000010 17.6299999999999955   T   T   T
  3.2299999998385016  1.8648413695757344 19.2349999999999994   T   T   T
  1.6150000000000009  2.7972620542237374  8.0000000000000000   F   F   F
  1.6149999998385021  4.6621034237994712  9.6049999999999986   F   F   F
  1.6150000000000011  2.7972620542237379 11.2099999999999991   F   F   F
  1.6149999998385021  4.6621034237994712 12.8149999999999977   F   F   F
  1.6150000000000013  2.7972620542237383 14.4199999999999982   T   T   T
  1.6149999998385023  4.6621034237994721 16.0249999999999986   T   T   T
  1.6150000000000015  2.7972620542237383 17.6299999999999955   T   T   T
  1.6149999998385025  4.6621034237994721 19.2349999999999994   T   T   T
