B  Mo Ru Mo B  Mo
 1.0000000000000000
     8.7822662223369203    0.0000000000000000    0.0000000000000005
    -2.1955665555842301    8.4849999999999994    0.0000000000000005
     0.0000000000000000    0.0000000000000000   27.6844829445448077
 B   Mo  Ru  Mo  B   Mo 
  16  13   1   2  16  16
Selective dynamics
Cartesian
  3.2933498333763476  1.7309399999999995 10.0000000000000036   F   F   F
  1.0977832777921175  1.7309399999999995 12.1955665555842323   F   F   F
  0.0000000000000024  5.9734399999999992 13.2933498333763467   F   F   F
  2.1955665555842305  5.9734399999999992 11.0977832777921179   F   F   F
  0.0000000000000002  2.5115599999999985 11.0977832777921179   F   F   F
  2.1955665555842319  2.5115599999999985 13.2933498333763467   F   F   F
 -1.0977832777921139  6.7540599999999973 10.0000000000000000   F   F   F
  1.0977832777921162  6.7540599999999973 12.1955665555842323   F   F   F
  3.2933498333763485  1.7309400000000006 14.3911331111684611   T   T   T
  1.0977832777921195  1.7309399999999995 16.5866996667526898   T   T   T
  0.0000000000000016  5.9734399999999992 17.6844829445448077   T   T   T
  2.1955665555842327  5.9734399999999992 15.4889163889605719   T   T   T
  0.0000000000000033  2.5115599999999985 15.4889163889605754   T   T   T
  2.1955665555842305  2.5115599999999985 17.6844829445448077   T   T   T
 -1.0977832777921130  6.7540599999999973 14.3911331111684611   T   T   T
  1.0977832777921179  6.7540599999999973 16.5866996667526898   T   T   T
  1.0977832777921159  7.5855899999999989 10.0000000000000000   F   F   F
 -1.0977832777921148  7.5855899999999989 12.1955665555842323   F   F   F
  0.0000000000000022  3.3430899999999979 13.2933498333763467   F   F   F
  2.1955665555842305  3.3430899999999979 11.0977832777921179   F   F   F
  0.0000000000000004  5.1419099999999984 11.0977832777921179   F   F   F
  2.1955665555842323  5.1419099999999984 13.2933498333763467   F   F   F
  1.0977832777921162  0.8994099999999988 10.0000000000000000   F   F   F
  3.2933498333763453  0.8994099999999988 12.1955665555842323   F   F   F
  1.0977832777921175  7.5855899999999981 14.3911331111684611   T   T   T
 -1.0977832777921117  7.5855899999999981 16.5866996667526898   T   T   T
  0.0000000000000016  3.3430899999999979 17.6844829445448077   T   T   T
  2.1955665555842332  3.3430899999999979 15.4889163889605719   T   T   T
  0.0000000000000033  5.1419099999999984 15.4889163889605754   T   T   T
  2.1955665555842305  5.1419099999999984 17.6844829445448077   T   T   T
  1.0977832777921179  0.8994099999999988 14.3911331111684611   T   T   T
  3.2933498333763493  0.8994099999999979 16.5866996667526898   T   T   T
  7.6844829445448077  1.7309399999999995 10.0000000000000036   F   F   F
  5.4889163889605772  1.7309399999999995 12.1955665555842323   F   F   F
  4.3911331111684628  5.9734399999999992 13.2933498333763467   F   F   F
  6.5866996667526907  5.9734399999999992 11.0977832777921179   F   F   F
  4.3911331111684602  2.5115599999999985 11.0977832777921179   F   F   F
  6.5866996667526916  2.5115599999999985 13.2933498333763467   F   F   F
  3.2933498333763462  6.7540599999999973 10.0000000000000000   F   F   F
  5.4889163889605763  6.7540599999999973 12.1955665555842323   F   F   F
  7.6844829445448086  1.7309400000000006 14.3911331111684611   T   T   T
  5.4889163889605799  1.7309399999999995 16.5866996667526898   T   T   T
  4.3911331111684619  5.9734399999999992 17.6844829445448077   T   T   T
  6.5866996667526934  5.9734399999999992 15.4889163889605719   T   T   T
  4.3911331111684637  2.5115599999999985 15.4889163889605754   T   T   T
  6.5866996667526907  2.5115599999999985 17.6844829445448077   T   T   T
  3.2933498333763471  6.7540599999999973 14.3911331111684611   T   T   T
  5.4889163889605781  6.7540599999999973 16.5866996667526898   T   T   T
  5.4889163889605763  7.5855899999999989 10.0000000000000000   F   F   F
  3.2933498333763453  7.5855899999999989 12.1955665555842323   F   F   F
  4.3911331111684628  3.3430899999999979 13.2933498333763467   F   F   F
  6.5866996667526907  3.3430899999999979 11.0977832777921179   F   F   F
  4.3911331111684611  5.1419099999999984 11.0977832777921179   F   F   F
  6.5866996667526925  5.1419099999999984 13.2933498333763467   F   F   F
  5.4889163889605763  0.8994099999999988 10.0000000000000000   F   F   F
  7.6844829445448060  0.8994099999999988 12.1955665555842323   F   F   F
  5.4889163889605772  7.5855899999999981 14.3911331111684611   T   T   T
  3.2933498333763485  7.5855899999999981 16.5866996667526898   T   T   T
  4.3911331111684619  3.3430899999999979 17.6844829445448077   T   T   T
  6.5866996667526934  3.3430899999999979 15.4889163889605719   T   T   T
  4.3911331111684637  5.1419099999999984 15.4889163889605754   T   T   T
  6.5866996667526907  5.1419099999999984 17.6844829445448077   T   T   T
  5.4889163889605781  0.8994099999999988 14.3911331111684611   T   T   T
  7.6844829445448095  0.8994099999999979 16.5866996667526898   T   T   T
