Mo N  Mo N  Mo N  Mo N 
 1.0000000000000000
     8.4000000000000004    0.0000000000000000    0.0000000000000005
     0.0000000000000014    8.4000000000000004    0.0000000000000005
     0.0000000000000000    0.0000000000000000   26.0000000000000000
 Mo  N   Mo  N   Mo  N   Mo  N  
   7   4   8   4   8   4   8   4
Selective dynamics
Cartesian
  0.0000000000000000  0.0000000000000000 16.0000000000000000   T   T   T
  2.1000000000000001  0.0000000000000000 10.0000000000000000   F   F   F
  0.0000000000000003  2.1000000000000001 10.0000000000000000   F   F   F
  0.0000000000000000  0.0000000000000000 12.0000000000000000   F   F   F
  2.1000000000000005  2.1000000000000001 12.0000000000000000   F   F   F
  2.1000000000000001  0.0000000000000000 14.0000000000000000   T   T   T
  0.0000000000000003  2.1000000000000001 14.0000000000000000   T   T   T
  2.1000000000000001  0.0000000000000000 16.0000000000000000   T   T   T
  2.1000000000000005  2.1000000000000001 10.0000000000000000   F   F   F
  0.0000000000000003  2.1000000000000001 12.0000000000000000   F   F   F
  0.0000000000000000  0.0000000000000000 14.0000000000000000   T   T   T
  0.0000000000000007  4.2000000000000002 16.0000000000000000   T   T   T
  2.1000000000000014  6.3000000000000007 16.0000000000000000   T   T   T
  2.1000000000000010  4.2000000000000002 10.0000000000000000   F   F   F
  0.0000000000000010  6.3000000000000007 10.0000000000000000   F   F   F
  0.0000000000000007  4.2000000000000002 12.0000000000000000   F   F   F
  2.1000000000000014  6.3000000000000007 12.0000000000000000   F   F   F
  2.1000000000000010  4.2000000000000002 14.0000000000000000   T   T   T
  0.0000000000000010  6.3000000000000007 14.0000000000000000   T   T   T
  2.1000000000000010  4.2000000000000002 16.0000000000000000   T   T   T
  2.1000000000000014  6.3000000000000007 10.0000000000000000   F   F   F
  0.0000000000000010  6.3000000000000007 12.0000000000000000   F   F   F
  0.0000000000000007  4.2000000000000002 14.0000000000000000   T   T   T
  4.2000000000000002  0.0000000000000000 16.0000000000000000   T   T   T
  6.3000000000000007  2.1000000000000001 16.0000000000000000   T   T   T
  6.3000000000000007  0.0000000000000000 10.0000000000000000   F   F   F
  4.2000000000000002  2.1000000000000001 10.0000000000000000   F   F   F
  4.2000000000000002  0.0000000000000000 12.0000000000000000   F   F   F
  6.3000000000000007  2.1000000000000001 12.0000000000000000   F   F   F
  6.3000000000000007  0.0000000000000000 14.0000000000000000   T   T   T
  4.2000000000000002  2.1000000000000001 14.0000000000000000   T   T   T
  6.3000000000000007  0.0000000000000000 16.0000000000000000   T   T   T
  6.3000000000000007  2.1000000000000001 10.0000000000000000   F   F   F
  4.2000000000000002  2.1000000000000001 12.0000000000000000   F   F   F
  4.2000000000000002  0.0000000000000000 14.0000000000000000   T   T   T
  4.2000000000000011  4.2000000000000002 16.0000000000000000   T   T   T
  6.3000000000000016  6.3000000000000007 16.0000000000000000   T   T   T
  6.3000000000000007  4.2000000000000002 10.0000000000000000   F   F   F
  4.2000000000000011  6.3000000000000007 10.0000000000000000   F   F   F
  4.2000000000000011  4.2000000000000002 12.0000000000000000   F   F   F
  6.3000000000000016  6.3000000000000007 12.0000000000000000   F   F   F
  6.3000000000000007  4.2000000000000002 14.0000000000000000   T   T   T
  4.2000000000000011  6.3000000000000007 14.0000000000000000   T   T   T
  6.3000000000000007  4.2000000000000002 16.0000000000000000   T   T   T
  6.3000000000000016  6.3000000000000007 10.0000000000000000   F   F   F
  4.2000000000000011  6.3000000000000007 12.0000000000000000   F   F   F
  4.2000000000000011  4.2000000000000002 14.0000000000000000   T   T   T
