Mo C  Mo C  Mo C  Mo C  Mo C  Mo C  Mo C  Mo C  Mo C  Mo C  Mo C  Mo C  Mo C  Mo C  Mo C  Mo C  Mo C  Mo C  Mo C  Mo C  Mo C  Mo C  Mo C  Mo C  Mo C  Mo C  Mo C  Mo C  Mo C  Mo C  Mo C  Mo C  Mo C  Mo C  Mo C  Mo C  Mo C  Mo C  Mo C  Mo C  Mo C  Mo C  Mo C  Mo C  Mo C  Mo C  Mo C  Mo C  Mo C  Mo C  Mo C  Mo C  Mo C  Mo C  Mo C  Mo C  Mo C  Mo C  Mo C  Mo C  Mo C  Mo C  Mo C  Mo C 
 1.0000000000000000
    28.0894713371398268    0.0000000000000000    0.0000000000000000
    15.3726068681493544   27.8518060828616143    0.0000000000000000
     0.0000000000000000    0.0000000000000000   31.8384229903866469
 Mo  C   Mo  C   Mo  C   Mo  C   Mo  C   Mo  C   Mo  C   Mo  C   Mo  C   Mo  C   Mo  C   Mo  C   Mo  C   Mo  C   Mo  C   Mo  C   Mo  C   Mo  C   Mo  C   Mo  C   Mo  C   Mo  C   Mo  C   Mo  C   Mo  C   Mo  C   Mo  C   Mo  C   Mo  C   Mo  C   Mo  C   Mo  C   Mo  C   Mo  C   Mo  C   Mo  C   Mo  C   Mo  C   Mo  C   Mo  C   Mo  C   Mo  C   Mo  C   Mo  C   Mo  C   Mo  C   Mo  C   Mo  C   Mo  C   Mo  C   Mo  C   Mo  C   Mo  C   Mo  C   Mo  C   Mo  C   Mo  C   Mo  C   Mo  C   Mo  C   Mo  C   Mo  C   Mo  C   Mo  C  
   8   4   8   4   8   4   8   4   8   4   8   4   8   4   8   4   8   4   8   4   8   4   8   4   8   4   8   4   8   4   8   4   8   4   8   4   8   4   8   4   8   4   8   4   8   4   8   4   8   4   8   4   8   4   8   4   8   4   8   4   8   4   8   4   8   4   8   4   8   4   8   4   8   4   8   4   8   4   8   4   8   4   8   4   8   4   8   4   8   4   8   4   8   4   8   4   8   4   8   4   8   4   8   4   8   4   8   4   8   4   8   4   8   4   8   4   8   4   8   4   8   4   8   4   8   4   8   4
Selective dynamics
Cartesian
  4.6249695389684815  0.3579831688691390 10.7557726628183516   F   F   F
  6.5465453974871517  5.1415103614431183 11.5115453256367015   F   F   F
  2.3973982953164747  2.2461196955634155 10.5018330481113846   F   F   F
  6.5465453974871526  2.5374074970105642 10.0000000000000000   F   F   F
  0.4758224367978055  0.0666953674219896 11.2576057109297345   F   F   F
  4.6249695389684824  2.9620860333016927 12.2673179884550532   F   F   F
  7.4981902710827635  2.6707982318545445 12.7691510365664360   F   F   F
  9.4197661296014346  4.8502225599959692 12.0133783737480861   F   F   F
  4.4719718464018134  2.3917635962869896 10.2509165240556932   F   F   F
  2.5503959878831446  2.8164421325781182 12.5182345125107446   F   F   F
  7.9831557635442918  6.2979178929358204 12.5182345125107446   F   F   F
  9.9047316220629593  5.8732393566446905 10.2509165240556932   F   F   F
  4.6249695389684824  5.5661888977342482 13.7788633140917529   F   F   F
  2.7033936804498149  3.3867645695928230 14.5346359769101046   F   F   F
  5.5766144125640951  0.4913739037131198 13.5249236993847894   F   F   F
  2.7033936804498140  0.7826617051602689 13.0230906512734030   F   F   F
  7.4981902710827644  5.2749010962870990 14.2806963622031375   F   F   F
  0.7818178219311440  1.2073402414513978 15.2904086397284544   F   F   F
  3.6550385540454262  0.9160524400042495 15.7922416878398408   F   F   F
  5.5766144125640951  3.0954767681456739 15.0364690250214892   F   F   F
  0.6288201293644757  0.6370178044366941 13.2740071753290962   F   F   F
  5.7296121051307658  1.0616963407278230 15.5413251637841476   F   F   F
  4.1400040465069550  4.5431721010855250 15.5413251637841476   F   F   F
  6.0615799050256234  4.1184935647943952 13.2740071753290962   F   F   F
  7.8041856562161014  3.8114431058839533 16.8019539653651577   T   T   T
  5.8826097976974321  1.6320187777425283 17.5577266281835094   T   T   T
  5.5766144125640960  5.6995796325782289 16.5480143506581925   T   T   T
  9.7257615147347725  5.9908674340253771 16.0461813025468061   T   T   T
  3.6550385540454249  3.5201553044368032 17.3037870134765406   T   T   T
  7.8041856562161014  6.4155459703165061 18.3134992910018575   T   T   T
  3.6550385540454253  6.1242581688693578 18.8153323391132403   T   T   T
  1.7334626955267531  1.3407309762953790 18.0595596762948922   T   T   T
  7.6511879636494333  5.8452235333018017 16.2970978266024957   T   T   T
  5.7296121051307676  6.2699020695929306 18.5644158150575542   T   T   T
  7.3192201637545731  2.7884263092352306 18.5644158150575507   T   T   T
  2.2184281879882857  2.3637477729440999 16.2970978266024957   T   T   T
  3.9610339391787641  2.0566973140336571 19.8250446166385643   T   T   T
  5.8826097976974312  6.8402245066076359 20.5808172794569089   T   T   T
  8.7558305298117141  3.9448338407279331 19.5711050019315920   T   T   T
  5.8826097976974365  4.2361216421750818 19.0692719538202091   T   T   T
  6.8342546712930448  1.7654095125865086 20.3268776647499436   T   T   T
  3.9610339391787646  4.6608001784662108 21.3365899422752605   T   T   T
  6.8342546712930456  4.3695123770190634 21.8384229903866469   T   T   T
  8.7558305298117141  6.5489367051604876 21.0826503275682953   T   T   T
  3.8080362466120943  4.0904777414515090 19.3201884778759023   T   T   T
  8.9088282223783857  4.5151562777426371 21.5875064663309573   T   T   T
  3.4760684467172376  1.0336805173849359 21.5875064663309573   T   T   T
  5.3976443052359055  0.6090019810938055 19.3201884778759023   T   T   T
  8.4681212560058192  7.3209346895845426 10.7557726628183516   F   F   F
 10.3896971145244912 12.1044618821585210 11.5115453256367015   F   F   F
  6.2405500123538129  9.2090712162788186 10.5018330481113846   F   F   F
 10.3896971145244912  9.5003590177259678 10.0000000000000000   F   F   F
  4.3189741538351445  7.0296468881373935 11.2576057109297345   F   F   F
  8.4681212560058210  9.9250375540170968 12.2673179884550532   F   F   F
 11.3413419881201030  9.6337497525699476 12.7691510365664360   F   F   F
 13.2629178466387732 11.8131740807113736 12.0133783737480861   F   F   F
  8.3151235634391512  9.3547151170023923 10.2509165240556932   F   F   F
  6.3935477049204827  9.7793936532935213 12.5182345125107446   F   F   F
 11.8263074805816295 13.2608694136512248 12.5182345125107446   F   F   F
 13.7478833391002979 12.8361908773600941 10.2509165240556932   F   F   F
  8.4681212560058210 12.5291404184496518 13.7788633140917529   F   F   F
  6.5465453974871535 10.3497160903082275 14.5346359769101046   F   F   F
  9.4197661296014346  7.4543254244285233 13.5249236993847894   F   F   F
  6.5465453974871526  7.7456132258756725 13.0230906512734030   F   F   F
 11.3413419881201030 12.2378526170025026 14.2806963622031375   F   F   F
  4.6249695389684824  8.1702917621668014 15.2904086397284544   F   F   F
  7.4981902710827644  7.8790039607196531 15.7922416878398408   F   F   F
  9.4197661296014346 10.0584282888610765 15.0364690250214892   F   F   F
  4.4719718464018143  7.5999693251520979 13.2740071753290962   F   F   F
  9.5727638221681044  8.0246478614432259 15.5413251637841476   F   F   F
  7.9831557635442936 11.5061236218009277 15.5413251637841476   F   F   F
  9.9047316220629611 11.0814450855097988 13.2740071753290962   F   F   F
 11.6473373732534391 10.7743946265993564 16.8019539653651577   T   T   T
  9.7257615147347707  8.5949702984579321 17.5577266281835094   T   T   T
  9.4197661296014346 12.6625311532936315 16.5480143506581925   T   T   T
 13.5689132317721111 12.9538189547407807 16.0461813025468061   T   T   T
  7.4981902710827635 10.4831068251522073 17.3037870134765406   T   T   T
 11.6473373732534391 13.3784974910319097 18.3134992910018575   T   T   T
  7.4981902710827644 13.0872096895847605 18.8153323391132403   T   T   T
  5.5766144125640915  8.3036824970107830 18.0595596762948922   T   T   T
 11.4943396806867710 12.8081750540172052 16.2970978266024957   T   T   T
  9.5727638221681062 13.2328535903083342 18.5644158150575542   T   T   T
 11.1623718807919126  9.7513778299506342 18.5644158150575507   T   T   T
  6.0615799050256243  9.3266992936595035 16.2970978266024957   T   T   T
  7.8041856562161023  9.0196488347490611 19.8250446166385643   T   T   T
  9.7257615147347707 13.8031760273230404 20.5808172794569089   T   T   T
 12.5989822468490527 10.9077853614433362 19.5711050019315920   T   T   T
  9.7257615147347742 11.1990731628904854 19.0692719538202091   T   T   T
 10.6774063883303825  8.7283610333019119 20.3268776647499436   T   T   T
  7.8041856562161032 11.6237516991816143 21.3365899422752605   T   T   T
 10.6774063883303842 11.3324638977344669 21.8384229903866469   T   T   T
 12.5989822468490527 13.5118882258758912 21.0826503275682953   T   T   T
  7.6511879636494324 11.0534292621669117 19.3201884778759023   T   T   T
 12.7519799394157243 11.4781077984580406 21.5875064663309573   T   T   T
  7.3192201637545757  7.9966320381003397 21.5875064663309573   T   T   T
  9.2407960222732441  7.5719535018092090 19.3201884778759023   T   T   T
 12.3112729730431596 14.2838862102999453 10.7557726628183516   F   F   F
 14.2328488315618280 19.0674134028739246 11.5115453256367015   F   F   F
 10.0837017293911515 16.1720227369942222 10.5018330481113846   F   F   F
 14.2328488315618298 16.4633105384413696 10.0000000000000000   F   F   F
  8.1621258708724831 13.9925984088527962 11.2576057109297345   F   F   F
 12.3112729730431596 16.8879890747324986 12.2673179884550532   F   F   F
 15.1844937051574398 16.5967012732853512 12.7691510365664360   F   F   F
 17.1060695636761118 18.7761256014267772 12.0133783737480861   F   F   F
 12.1582752804764915 16.3176666377177959 10.2509165240556932   F   F   F
 10.2366994219578213 16.7423451740089249 12.5182345125107446   F   F   F
 15.6694591976189699 20.2238209343666284 12.5182345125107446   F   F   F
 17.5910350561376347 19.7991423980754959 10.2509165240556932   F   F   F
 12.3112729730431596 19.4920919391650571 13.7788633140917529   F   F   F
 10.3896971145244912 17.3126676110236311 14.5346359769101046   F   F   F
 13.2629178466387714 14.4172769451439269 13.5249236993847894   F   F   F
 10.3896971145244912 14.7085647465910760 13.0230906512734030   F   F   F
 15.1844937051574416 19.2008041377179062 14.2806963622031375   F   F   F
  8.4681212560058210 15.1332432828822050 15.2904086397284544   F   F   F
 11.3413419881201030 14.8419554814350558 15.7922416878398408   F   F   F
 13.2629178466387714 17.0213798095764801 15.0364690250214892   F   F   F
  8.3151235634391529 14.5629208458675006 13.2740071753290962   F   F   F
 13.4159155392054430 14.9875993821586295 15.5413251637841476   F   F   F
 11.8263074805816331 18.4690751425163313 15.5413251637841476   F   F   F
 13.7478833391003015 18.0443966062252024 13.2740071753290962   F   F   F
 15.4904890902907795 17.7373461473147600 16.8019539653651577   T   T   T
 13.5689132317721093 15.5579218191733357 17.5577266281835094   T   T   T
 13.2629178466387732 19.6254826740090351 16.5480143506581925   T   T   T
 17.4120649488094514 19.9167704754561825 16.0461813025468061   T   T   T
 11.3413419881201030 17.4460583458676091 17.3037870134765406   T   T   T
 15.4904890902907795 20.3414490117473150 18.3134992910018575   T   T   T
 11.3413419881201030 20.0501612103001641 18.8153323391132403   T   T   T
  9.4197661296014310 15.2666340177261866 18.0595596762948922   T   T   T
 15.3374913977241114 19.7711265747326088 16.2970978266024957   T   T   T
 13.4159155392054448 20.1958051110237378 18.5644158150575542   T   T   T
 15.0055235978292494 16.7143293506660378 18.5644158150575507   T   T   T
  9.9047316220629629 16.2896508143749088 16.2970978266024957   T   T   T
 11.6473373732534409 15.9826003554644647 19.8250446166385643   T   T   T
 13.5689132317721075 20.7661275480384440 20.5808172794569089   T   T   T
 16.4421339638863913 17.8707368821587416 19.5711050019315920   T   T   T
 13.5689132317721146 18.1620246836058890 19.0692719538202091   T   T   T
 14.5205581053677228 15.6913125540173155 20.3268776647499436   T   T   T
 11.6473373732534426 18.5867032198970179 21.3365899422752605   T   T   T
 14.5205581053677228 18.2954154184498705 21.8384229903866469   T   T   T
 16.4421339638863913 20.4748397465912930 21.0826503275682953   T   T   T
 11.4943396806867710 18.0163807828823153 19.3201884778759023   T   T   T
 16.5951316564530629 18.4410593191734442 21.5875064663309573   T   T   T
 11.1623718807919143 14.9595835588157424 21.5875064663309573   T   T   T
 13.0839477393105827 14.5349050225246135 19.3201884778759023   T   T   T
 16.1544246900804964 21.2468377310153507 10.7557726628183516   F   F   F
 18.0760005485991684 26.0303649235893282 11.5115453256367015   F   F   F
 13.9268534464284901 23.1349742577096258 10.5018330481113846   F   F   F
 18.0760005485991684 23.4262620591567767 10.0000000000000000   F   F   F
 12.0052775879098217 20.9555499295681997 11.2576057109297345   F   F   F
 16.1544246900804964 23.8509405954479021 12.2673179884550532   F   F   F
 19.0276454221947802 23.5596527940007547 12.7691510365664360   F   F   F
 20.9492212807134521 25.7390771221421808 12.0133783737480861   F   F   F
 16.0014269975138284 23.2806181584331995 10.2509165240556932   F   F   F
 14.0798511389951599 23.7052966947243284 12.5182345125107446   F   F   F
 19.5126109146563067 27.1867724550820320 12.5182345125107446   F   F   F
 21.4341867731749751 26.7620939187909030 10.2509165240556932   F   F   F
 16.1544246900804964 26.4550434598804571 13.7788633140917529   F   F   F
 14.2328488315618316 24.2756191317390346 14.5346359769101046   F   F   F
 17.1060695636761118 21.3802284658593322 13.5249236993847894   F   F   F
 14.2328488315618298 21.6715162673064796 13.0230906512734030   F   F   F
 19.0276454221947802 26.1637556584333097 14.2806963622031375   F   F   F
 12.3112729730431596 22.0961948035976086 15.2904086397284544   F   F   F
 15.1844937051574416 21.8049070021504612 15.7922416878398408   F   F   F
 17.1060695636761118 23.9843313302918837 15.0364690250214892   F   F   F
 12.1582752804764915 21.5258723665829059 13.2740071753290962   F   F   F
 17.2590672562427798 21.9505509028740349 15.5413251637841476   F   F   F
 15.6694591976189699 25.4320266632317349 15.5413251637841476   F   F   F
 17.5910350561376383 25.0073481269406059 13.2740071753290962   F   F   F
 19.3336408073281163 24.7002976680301636 16.8019539653651577   T   T   T
 17.4120649488094479 22.5208733398887375 17.5577266281835094   T   T   T
 17.1060695636761118 26.5884341947244387 16.5480143506581925   T   T   T
 21.2552166658467883 26.8797219961715896 16.0461813025468061   T   T   T
 15.1844937051574398 24.4090098665830126 17.3037870134765406   T   T   T
 19.3336408073281163 27.3044005324627150 18.3134992910018575   T   T   T
 15.1844937051574416 27.0131127310155676 18.8153323391132403   T   T   T
 13.2629178466387696 22.2295855384415901 18.0595596762948922   T   T   T
 19.1806431147614482 26.7340780954480124 16.2970978266024957   T   T   T
 17.2590672562427834 27.1587566317391413 18.5644158150575542   T   T   T
 18.8486753148665898 23.6772808713814413 18.5644158150575507   T   T   T
 13.7478833391003015 23.2526023350903088 16.2970978266024957   T   T   T
 15.4904890902907795 22.9455518761798665 19.8250446166385643   T   T   T
 17.4120649488094479 27.7290790687538475 20.5808172794569089   T   T   T
 20.2852856809237281 24.8336884028741451 19.5711050019315920   T   T   T
 17.4120649488094514 25.1249762043212925 19.0692719538202091   T   T   T
 18.3637098224050597 22.6542640747327191 20.3268776647499436   T   T   T
 15.4904890902907795 25.5496547406124215 21.3365899422752605   T   T   T
 18.3637098224050632 25.2583669391652741 21.8384229903866469   T   T   T
 20.2852856809237281 27.4377912673067001 21.0826503275682953   T   T   T
 15.3374913977241096 24.9793323035977188 19.3201884778759023   T   T   T
 20.4382833734903997 25.4040108398888478 21.5875064663309573   T   T   T
 15.0055235978292529 21.9225350795311478 21.5875064663309573   T   T   T
 16.9270994563479213 21.4978565432400153 19.3201884778759023   T   T   T
 11.6473373732534391  0.3579831688691390 10.7557726628183516   F   F   F
 13.5689132317721075  5.1415103614431183 11.5115453256367015   F   F   F
  9.4197661296014310  2.2461196955634155 10.5018330481113846   F   F   F
 13.5689132317721093  2.5374074970105642 10.0000000000000000   F   F   F
  7.4981902710827626  0.0666953674219896 11.2576057109297345   F   F   F
 11.6473373732534391  2.9620860333016927 12.2673179884550532   F   F   F
 14.5205581053677193  2.6707982318545445 12.7691510365664360   F   F   F
 16.4421339638863913  4.8502225599959692 12.0133783737480861   F   F   F
 11.4943396806867710  2.3917635962869896 10.2509165240556932   F   F   F
  9.5727638221681008  2.8164421325781182 12.5182345125107446   F   F   F
 15.0055235978292494  6.2979178929358204 12.5182345125107446   F   F   F
 16.9270994563479178  5.8732393566446905 10.2509165240556932   F   F   F
 11.6473373732534391  5.5661888977342482 13.7788633140917529   F   F   F
  9.7257615147347707  3.3867645695928230 14.5346359769101046   F   F   F
 12.5989822468490509  0.4913739037131198 13.5249236993847894   F   F   F
  9.7257615147347707  0.7826617051602689 13.0230906512734030   F   F   F
 14.5205581053677211  5.2749010962870990 14.2806963622031375   F   F   F
  7.8041856562161005  1.2073402414513978 15.2904086397284544   F   F   F
 10.6774063883303825  0.9160524400042495 15.7922416878398408   F   F   F
 12.5989822468490509  3.0954767681456739 15.0364690250214892   F   F   F
  7.6511879636494324  0.6370178044366941 13.2740071753290962   F   F   F
 12.7519799394157225  1.0616963407278230 15.5413251637841476   F   F   F
 11.1623718807919126  4.5431721010855250 15.5413251637841476   F   F   F
 13.0839477393105810  4.1184935647943952 13.2740071753290962   F   F   F
 14.8265534905010590  3.8114431058839533 16.8019539653651577   T   T   T
 12.9049776319823888  1.6320187777425283 17.5577266281835094   T   T   T
 12.5989822468490527  5.6995796325782289 16.5480143506581925   T   T   T
 16.7481293490197274  5.9908674340253771 16.0461813025468061   T   T   T
 10.6774063883303825  3.5201553044368032 17.3037870134765406   T   T   T
 14.8265534905010590  6.4155459703165061 18.3134992910018575   T   T   T
 10.6774063883303825  6.1242581688693578 18.8153323391132403   T   T   T
  8.7558305298117105  1.3407309762953790 18.0595596762948922   T   T   T
 14.6735557979343909  5.8452235333018017 16.2970978266024957   T   T   T
 12.7519799394157243  6.2699020695929306 18.5644158150575542   T   T   T
 14.3415879980395289  2.7884263092352306 18.5644158150575507   T   T   T
  9.2407960222732424  2.3637477729440999 16.2970978266024957   T   T   T
 10.9834017734637204  2.0566973140336571 19.8250446166385643   T   T   T
 12.9049776319823870  6.8402245066076359 20.5808172794569089   T   T   T
 15.7781983640966708  3.9448338407279331 19.5711050019315920   T   T   T
 12.9049776319823941  4.2361216421750818 19.0692719538202091   T   T   T
 13.8566225055780023  1.7654095125865086 20.3268776647499436   T   T   T
 10.9834017734637222  4.6608001784662108 21.3365899422752605   T   T   T
 13.8566225055780023  4.3695123770190634 21.8384229903866469   T   T   T
 15.7781983640966708  6.5489367051604876 21.0826503275682953   T   T   T
 10.8304040808970505  4.0904777414515090 19.3201884778759023   T   T   T
 15.9311960566633424  4.5151562777426371 21.5875064663309573   T   T   T
 10.4984362810021938  1.0336805173849359 21.5875064663309573   T   T   T
 12.4200121395208622  0.6090019810938055 19.3201884778759023   T   T   T
 15.4904890902907759  7.3209346895845426 10.7557726628183516   F   F   F
 17.4120649488094479 12.1044618821585210 11.5115453256367015   F   F   F
 13.2629178466387696  9.2090712162788186 10.5018330481113846   F   F   F
 17.4120649488094479  9.5003590177259678 10.0000000000000000   F   F   F
 11.3413419881201012  7.0296468881373935 11.2576057109297345   F   F   F
 15.4904890902907777  9.9250375540170968 12.2673179884550532   F   F   F
 18.3637098224050597  9.6337497525699476 12.7691510365664360   F   F   F
 20.2852856809237281 11.8131740807113736 12.0133783737480861   F   F   F
 15.3374913977241079  9.3547151170023923 10.2509165240556932   F   F   F
 13.4159155392054394  9.7793936532935213 12.5182345125107446   F   F   F
 18.8486753148665862 13.2608694136512248 12.5182345125107446   F   F   F
 20.7702511733852546 12.8361908773600941 10.2509165240556932   F   F   F
 15.4904890902907777 12.5291404184496518 13.7788633140917529   F   F   F
 13.5689132317721111 10.3497160903082275 14.5346359769101046   F   F   F
 16.4421339638863913  7.4543254244285233 13.5249236993847894   F   F   F
 13.5689132317721093  7.7456132258756725 13.0230906512734030   F   F   F
 18.3637098224050597 12.2378526170025026 14.2806963622031375   F   F   F
 11.6473373732534391  8.1702917621668014 15.2904086397284544   F   F   F
 14.5205581053677211  7.8790039607196531 15.7922416878398408   F   F   F
 16.4421339638863913 10.0584282888610765 15.0364690250214892   F   F   F
 11.4943396806867710  7.5999693251520979 13.2740071753290962   F   F   F
 16.5951316564530629  8.0246478614432259 15.5413251637841476   F   F   F
 15.0055235978292494 11.5061236218009277 15.5413251637841476   F   F   F
 16.9270994563479178 11.0814450855097988 13.2740071753290962   F   F   F
 18.6697052075383958 10.7743946265993564 16.8019539653651577   T   T   T
 16.7481293490197274  8.5949702984579321 17.5577266281835094   T   T   T
 16.4421339638863913 12.6625311532936315 16.5480143506581925   T   T   T
 20.5912810660570678 12.9538189547407807 16.0461813025468061   T   T   T
 14.5205581053677193 10.4831068251522073 17.3037870134765406   T   T   T
 18.6697052075383958 13.3784974910319097 18.3134992910018575   T   T   T
 14.5205581053677211 13.0872096895847605 18.8153323391132403   T   T   T
 12.5989822468490491  8.3036824970107830 18.0595596762948922   T   T   T
 18.5167075149717277 12.8081750540172052 16.2970978266024957   T   T   T
 16.5951316564530629 13.2328535903083342 18.5644158150575542   T   T   T
 18.1847397150768693  9.7513778299506342 18.5644158150575507   T   T   T
 13.0839477393105810  9.3266992936595035 16.2970978266024957   T   T   T
 14.8265534905010590  9.0196488347490611 19.8250446166385643   T   T   T
 16.7481293490197274 13.8031760273230404 20.5808172794569089   T   T   T
 19.6213500811340111 10.9077853614433362 19.5711050019315920   T   T   T
 16.7481293490197309 11.1990731628904854 19.0692719538202091   T   T   T
 17.6997742226153392  8.7283610333019119 20.3268776647499436   T   T   T
 14.8265534905010590 11.6237516991816143 21.3365899422752605   T   T   T
 17.6997742226153392 11.3324638977344669 21.8384229903866469   T   T   T
 19.6213500811340111 13.5118882258758912 21.0826503275682953   T   T   T
 14.6735557979343891 11.0534292621669117 19.3201884778759023   T   T   T
 19.7743477737006828 11.4781077984580406 21.5875064663309573   T   T   T
 14.3415879980395324  7.9966320381003397 21.5875064663309573   T   T   T
 16.2631638565582008  7.5719535018092090 19.3201884778759023   T   T   T
 19.3336408073281163 14.2838862102999453 10.7557726628183516   F   F   F
 21.2552166658467847 19.0674134028739246 11.5115453256367015   F   F   F
 17.1060695636761082 16.1720227369942222 10.5018330481113846   F   F   F
 21.2552166658467883 16.4633105384413696 10.0000000000000000   F   F   F
 15.1844937051574398 13.9925984088527962 11.2576057109297345   F   F   F
 19.3336408073281163 16.8879890747324986 12.2673179884550532   F   F   F
 22.2068615394423965 16.5967012732853512 12.7691510365664360   F   F   F
 24.1284373979610685 18.7761256014267772 12.0133783737480861   F   F   F
 19.1806431147614482 16.3176666377177959 10.2509165240556932   F   F   F
 17.2590672562427798 16.7423451740089249 12.5182345125107446   F   F   F
 22.6918270319039266 20.2238209343666284 12.5182345125107446   F   F   F
 24.6134028904225914 19.7991423980754959 10.2509165240556932   F   F   F
 19.3336408073281163 19.4920919391650571 13.7788633140917529   F   F   F
 17.4120649488094479 17.3126676110236311 14.5346359769101046   F   F   F
 20.2852856809237281 14.4172769451439269 13.5249236993847894   F   F   F
 17.4120649488094479 14.7085647465910760 13.0230906512734030   F   F   F
 22.2068615394424000 19.2008041377179062 14.2806963622031375   F   F   F
 15.4904890902907777 15.1332432828822050 15.2904086397284544   F   F   F
 18.3637098224050597 14.8419554814350558 15.7922416878398408   F   F   F
 20.2852856809237281 17.0213798095764801 15.0364690250214892   F   F   F
 15.3374913977241096 14.5629208458675006 13.2740071753290962   F   F   F
 20.4382833734903997 14.9875993821586295 15.5413251637841476   F   F   F
 18.8486753148665898 18.4690751425163313 15.5413251637841476   F   F   F
 20.7702511733852582 18.0443966062252024 13.2740071753290962   F   F   F
 22.5128569245757362 17.7373461473147600 16.8019539653651577   T   T   T
 20.5912810660570642 15.5579218191733357 17.5577266281835094   T   T   T
 20.2852856809237281 19.6254826740090351 16.5480143506581925   T   T   T
 24.4344327830944081 19.9167704754561825 16.0461813025468061   T   T   T
 18.3637098224050597 17.4460583458676091 17.3037870134765406   T   T   T
 22.5128569245757362 20.3414490117473150 18.3134992910018575   T   T   T
 18.3637098224050597 20.0501612103001641 18.8153323391132403   T   T   T
 16.4421339638863877 15.2666340177261866 18.0595596762948922   T   T   T
 22.3598592320090681 19.7711265747326088 16.2970978266024957   T   T   T
 20.4382833734903997 20.1958051110237378 18.5644158150575542   T   T   T
 22.0278914321142061 16.7143293506660378 18.5644158150575507   T   T   T
 16.9270994563479178 16.2896508143749088 16.2970978266024957   T   T   T
 18.6697052075383993 15.9826003554644647 19.8250446166385643   T   T   T
 20.5912810660570642 20.7661275480384440 20.5808172794569089   T   T   T
 23.4645017981713480 17.8707368821587416 19.5711050019315920   T   T   T
 20.5912810660570713 18.1620246836058890 19.0692719538202091   T   T   T
 21.5429259396526795 15.6913125540173155 20.3268776647499436   T   T   T
 18.6697052075383993 18.5867032198970179 21.3365899422752605   T   T   T
 21.5429259396526795 18.2954154184498705 21.8384229903866469   T   T   T
 23.4645017981713480 20.4748397465912930 21.0826503275682953   T   T   T
 18.5167075149717277 18.0163807828823153 19.3201884778759023   T   T   T
 23.6174994907380196 18.4410593191734442 21.5875064663309573   T   T   T
 18.1847397150768728 14.9595835588157424 21.5875064663309573   T   T   T
 20.1063155735955377 14.5349050225246135 19.3201884778759023   T   T   T
 23.1767925243654567 21.2468377310153507 10.7557726628183516   F   F   F
 25.0983683828841251 26.0303649235893282 11.5115453256367015   F   F   F
 20.9492212807134486 23.1349742577096258 10.5018330481113846   F   F   F
 25.0983683828841251 23.4262620591567767 10.0000000000000000   F   F   F
 19.0276454221947802 20.9555499295681997 11.2576057109297345   F   F   F
 23.1767925243654567 23.8509405954479021 12.2673179884550532   F   F   F
 26.0500132564797369 23.5596527940007547 12.7691510365664360   F   F   F
 27.9715891149984088 25.7390771221421808 12.0133783737480861   F   F   F
 23.0237948317987886 23.2806181584331995 10.2509165240556932   F   F   F
 21.1022189732801202 23.7052966947243284 12.5182345125107446   F   F   F
 26.5349787489412670 27.1867724550820320 12.5182345125107446   F   F   F
 28.4565546074599354 26.7620939187909030 10.2509165240556932   F   F   F
 23.1767925243654567 26.4550434598804571 13.7788633140917529   F   F   F
 21.2552166658467883 24.2756191317390346 14.5346359769101046   F   F   F
 24.1284373979610685 21.3802284658593322 13.5249236993847894   F   F   F
 21.2552166658467883 21.6715162673064796 13.0230906512734030   F   F   F
 26.0500132564797369 26.1637556584333097 14.2806963622031375   F   F   F
 19.3336408073281198 22.0961948035976086 15.2904086397284544   F   F   F
 22.2068615394424000 21.8049070021504612 15.7922416878398408   F   F   F
 24.1284373979610685 23.9843313302918837 15.0364690250214892   F   F   F
 19.1806431147614518 21.5258723665829059 13.2740071753290962   F   F   F
 24.2814350905277401 21.9505509028740349 15.5413251637841476   F   F   F
 22.6918270319039301 25.4320266632317349 15.5413251637841476   F   F   F
 24.6134028904225985 25.0073481269406059 13.2740071753290962   F   F   F
 26.3560086416130765 24.7002976680301636 16.8019539653651577   T   T   T
 24.4344327830944081 22.5208733398887375 17.5577266281835094   T   T   T
 24.1284373979610720 26.5884341947244387 16.5480143506581925   T   T   T
 28.2775845001317450 26.8797219961715896 16.0461813025468061   T   T   T
 22.2068615394424000 24.4090098665830126 17.3037870134765406   T   T   T
 26.3560086416130765 27.3044005324627150 18.3134992910018575   T   T   T
 22.2068615394424000 27.0131127310155676 18.8153323391132403   T   T   T
 20.2852856809237281 22.2295855384415901 18.0595596762948922   T   T   T
 26.2030109490464085 26.7340780954480124 16.2970978266024957   T   T   T
 24.2814350905277436 27.1587566317391413 18.5644158150575542   T   T   T
 25.8710431491515465 23.6772808713814413 18.5644158150575507   T   T   T
 20.7702511733852617 23.2526023350903088 16.2970978266024957   T   T   T
 22.5128569245757397 22.9455518761798665 19.8250446166385643   T   T   T
 24.4344327830944046 27.7290790687538475 20.5808172794569089   T   T   T
 27.3076535152086883 24.8336884028741451 19.5711050019315920   T   T   T
 24.4344327830944117 25.1249762043212925 19.0692719538202091   T   T   T
 25.3860776566900199 22.6542640747327191 20.3268776647499436   T   T   T
 22.5128569245757397 25.5496547406124215 21.3365899422752605   T   T   T
 25.3860776566900199 25.2583669391652741 21.8384229903866469   T   T   T
 27.3076535152086883 27.4377912673067001 21.0826503275682953   T   T   T
 22.3598592320090681 24.9793323035977188 19.3201884778759023   T   T   T
 27.4606512077753599 25.4040108398888478 21.5875064663309573   T   T   T
 22.0278914321142132 21.9225350795311478 21.5875064663309573   T   T   T
 23.9494672906328816 21.4978565432400153 19.3201884778759023   T   T   T
 18.6697052075383958  0.3579831688691390 10.7557726628183516   F   F   F
 20.5912810660570642  5.1415103614431183 11.5115453256367015   F   F   F
 16.4421339638863877  2.2461196955634155 10.5018330481113846   F   F   F
 20.5912810660570642  2.5374074970105642 10.0000000000000000   F   F   F
 14.5205581053677193  0.0666953674219896 11.2576057109297345   F   F   F
 18.6697052075383958  2.9620860333016927 12.2673179884550532   F   F   F
 21.5429259396526760  2.6707982318545445 12.7691510365664360   F   F   F
 23.4645017981713480  4.8502225599959692 12.0133783737480861   F   F   F
 18.5167075149717277  2.3917635962869896 10.2509165240556932   F   F   F
 16.5951316564530593  2.8164421325781182 12.5182345125107446   F   F   F
 22.0278914321142061  6.2979178929358204 12.5182345125107446   F   F   F
 23.9494672906328745  5.8732393566446905 10.2509165240556932   F   F   F
 18.6697052075383958  5.5661888977342482 13.7788633140917529   F   F   F
 16.7481293490197274  3.3867645695928230 14.5346359769101046   F   F   F
 19.6213500811340076  0.4913739037131198 13.5249236993847894   F   F   F
 16.7481293490197274  0.7826617051602689 13.0230906512734030   F   F   F
 21.5429259396526760  5.2749010962870990 14.2806963622031375   F   F   F
 14.8265534905010572  1.2073402414513978 15.2904086397284544   F   F   F
 17.6997742226153392  0.9160524400042495 15.7922416878398408   F   F   F
 19.6213500811340076  3.0954767681456739 15.0364690250214892   F   F   F
 14.6735557979343891  0.6370178044366941 13.2740071753290962   F   F   F
 19.7743477737006792  1.0616963407278230 15.5413251637841476   F   F   F
 18.1847397150768693  4.5431721010855250 15.5413251637841476   F   F   F
 20.1063155735955377  4.1184935647943952 13.2740071753290962   F   F   F
 21.8489213247860157  3.8114431058839533 16.8019539653651577   T   T   T
 19.9273454662673473  1.6320187777425283 17.5577266281835094   T   T   T
 19.6213500811340111  5.6995796325782289 16.5480143506581925   T   T   T
 23.7704971833046841  5.9908674340253771 16.0461813025468061   T   T   T
 17.6997742226153392  3.5201553044368032 17.3037870134765406   T   T   T
 21.8489213247860157  6.4155459703165061 18.3134992910018575   T   T   T
 17.6997742226153392  6.1242581688693578 18.8153323391132403   T   T   T
 15.7781983640966672  1.3407309762953790 18.0595596762948922   T   T   T
 21.6959236322193476  5.8452235333018017 16.2970978266024957   T   T   T
 19.7743477737006828  6.2699020695929306 18.5644158150575542   T   T   T
 21.3639558323244856  2.7884263092352306 18.5644158150575507   T   T   T
 16.2631638565582008  2.3637477729440999 16.2970978266024957   T   T   T
 18.0057696077486789  2.0566973140336571 19.8250446166385643   T   T   T
 19.9273454662673437  6.8402245066076359 20.5808172794569089   T   T   T
 22.8005661983816275  3.9448338407279331 19.5711050019315920   T   T   T
 19.9273454662673508  4.2361216421750818 19.0692719538202091   T   T   T
 20.8789903398629590  1.7654095125865086 20.3268776647499436   T   T   T
 18.0057696077486789  4.6608001784662108 21.3365899422752605   T   T   T
 20.8789903398629590  4.3695123770190634 21.8384229903866469   T   T   T
 22.8005661983816275  6.5489367051604876 21.0826503275682953   T   T   T
 17.8527719151820072  4.0904777414515090 19.3201884778759023   T   T   T
 22.9535638909482991  4.5151562777426371 21.5875064663309573   T   T   T
 17.5208041152871523  1.0336805173849359 21.5875064663309573   T   T   T
 19.4423799738058207  0.6090019810938055 19.3201884778759023   T   T   T
 22.5128569245757326  7.3209346895845426 10.7557726628183516   F   F   F
 24.4344327830944010 12.1044618821585210 11.5115453256367015   F   F   F
 20.2852856809237245  9.2090712162788186 10.5018330481113846   F   F   F
 24.4344327830944010  9.5003590177259678 10.0000000000000000   F   F   F
 18.3637098224050561  7.0296468881373935 11.2576057109297345   F   F   F
 22.5128569245757326  9.9250375540170968 12.2673179884550532   F   F   F
 25.3860776566900128  9.6337497525699476 12.7691510365664360   F   F   F
 27.3076535152086848 11.8131740807113736 12.0133783737480861   F   F   F
 22.3598592320090646  9.3547151170023923 10.2509165240556932   F   F   F
 20.4382833734903961  9.7793936532935213 12.5182345125107446   F   F   F
 25.8710431491515429 13.2608694136512248 12.5182345125107446   F   F   F
 27.7926190076702113 12.8361908773600941 10.2509165240556932   F   F   F
 22.5128569245757326 12.5291404184496518 13.7788633140917529   F   F   F
 20.5912810660570642 10.3497160903082275 14.5346359769101046   F   F   F
 23.4645017981713444  7.4543254244285233 13.5249236993847894   F   F   F
 20.5912810660570642  7.7456132258756725 13.0230906512734030   F   F   F
 25.3860776566900128 12.2378526170025026 14.2806963622031375   F   F   F
 18.6697052075383958  8.1702917621668014 15.2904086397284544   F   F   F
 21.5429259396526760  7.8790039607196531 15.7922416878398408   F   F   F
 23.4645017981713444 10.0584282888610765 15.0364690250214892   F   F   F
 18.5167075149717277  7.5999693251520979 13.2740071753290962   F   F   F
 23.6174994907380160  8.0246478614432259 15.5413251637841476   F   F   F
 22.0278914321142061 11.5061236218009277 15.5413251637841476   F   F   F
 23.9494672906328745 11.0814450855097988 13.2740071753290962   F   F   F
 25.6920730418233525 10.7743946265993564 16.8019539653651577   T   T   T
 23.7704971833046841  8.5949702984579321 17.5577266281835094   T   T   T
 23.4645017981713480 12.6625311532936315 16.5480143506581925   T   T   T
 27.6136489003420209 12.9538189547407807 16.0461813025468061   T   T   T
 21.5429259396526760 10.4831068251522073 17.3037870134765406   T   T   T
 25.6920730418233525 13.3784974910319097 18.3134992910018575   T   T   T
 21.5429259396526760 13.0872096895847605 18.8153323391132403   T   T   T
 19.6213500811340040  8.3036824970107830 18.0595596762948922   T   T   T
 25.5390753492566844 12.8081750540172052 16.2970978266024957   T   T   T
 23.6174994907380196 13.2328535903083342 18.5644158150575542   T   T   T
 25.2071075493618224  9.7513778299506342 18.5644158150575507   T   T   T
 20.1063155735955377  9.3266992936595035 16.2970978266024957   T   T   T
 21.8489213247860157  9.0196488347490611 19.8250446166385643   T   T   T
 23.7704971833046805 13.8031760273230404 20.5808172794569089   T   T   T
 26.6437179154189643 10.9077853614433362 19.5711050019315920   T   T   T
 23.7704971833046876 11.1990731628904854 19.0692719538202091   T   T   T
 24.7221420569002959  8.7283610333019119 20.3268776647499436   T   T   T
 21.8489213247860157 11.6237516991816143 21.3365899422752605   T   T   T
 24.7221420569002959 11.3324638977344669 21.8384229903866469   T   T   T
 26.6437179154189643 13.5118882258758912 21.0826503275682953   T   T   T
 21.6959236322193441 11.0534292621669117 19.3201884778759023   T   T   T
 26.7967156079856359 11.4781077984580406 21.5875064663309573   T   T   T
 21.3639558323244891  7.9966320381003397 21.5875064663309573   T   T   T
 23.2855316908431575  7.5719535018092090 19.3201884778759023   T   T   T
 26.3560086416130730 14.2838862102999453 10.7557726628183516   F   F   F
 28.2775845001317414 19.0674134028739246 11.5115453256367015   F   F   F
 24.1284373979610649 16.1720227369942222 10.5018330481113846   F   F   F
 28.2775845001317450 16.4633105384413696 10.0000000000000000   F   F   F
 22.2068615394423965 13.9925984088527962 11.2576057109297345   F   F   F
 26.3560086416130730 16.8879890747324986 12.2673179884550532   F   F   F
 29.2292293737273532 16.5967012732853512 12.7691510365664360   F   F   F
 31.1508052322460252 18.7761256014267772 12.0133783737480861   F   F   F
 26.2030109490464049 16.3176666377177959 10.2509165240556932   F   F   F
 24.2814350905277365 16.7423451740089249 12.5182345125107446   F   F   F
 29.7141948661888833 20.2238209343666284 12.5182345125107446   F   F   F
 31.6357707247075481 19.7991423980754959 10.2509165240556932   F   F   F
 26.3560086416130730 19.4920919391650571 13.7788633140917529   F   F   F
 24.4344327830944046 17.3126676110236311 14.5346359769101046   F   F   F
 27.3076535152086848 14.4172769451439269 13.5249236993847894   F   F   F
 24.4344327830944046 14.7085647465910760 13.0230906512734030   F   F   F
 29.2292293737273567 19.2008041377179062 14.2806963622031375   F   F   F
 22.5128569245757362 15.1332432828822050 15.2904086397284544   F   F   F
 25.3860776566900164 14.8419554814350558 15.7922416878398408   F   F   F
 27.3076535152086848 17.0213798095764801 15.0364690250214892   F   F   F
 22.3598592320090646 14.5629208458675006 13.2740071753290962   F   F   F
 27.4606512077753564 14.9875993821586295 15.5413251637841476   F   F   F
 25.8710431491515465 18.4690751425163313 15.5413251637841476   F   F   F
 27.7926190076702149 18.0443966062252024 13.2740071753290962   F   F   F
 29.5352247588606929 17.7373461473147600 16.8019539653651577   T   T   T
 27.6136489003420209 15.5579218191733357 17.5577266281835094   T   T   T
 27.3076535152086848 19.6254826740090351 16.5480143506581925   T   T   T
 31.4568006173793648 19.9167704754561825 16.0461813025468061   T   T   T
 25.3860776566900164 17.4460583458676091 17.3037870134765406   T   T   T
 29.5352247588606929 20.3414490117473150 18.3134992910018575   T   T   T
 25.3860776566900164 20.0501612103001641 18.8153323391132403   T   T   T
 23.4645017981713444 15.2666340177261866 18.0595596762948922   T   T   T
 29.3822270662940248 19.7711265747326088 16.2970978266024957   T   T   T
 27.4606512077753564 20.1958051110237378 18.5644158150575542   T   T   T
 29.0502592663991628 16.7143293506660378 18.5644158150575507   T   T   T
 23.9494672906328745 16.2896508143749088 16.2970978266024957   T   T   T
 25.6920730418233560 15.9826003554644647 19.8250446166385643   T   T   T
 27.6136489003420209 20.7661275480384440 20.5808172794569089   T   T   T
 30.4868696324563047 17.8707368821587416 19.5711050019315920   T   T   T
 27.6136489003420280 18.1620246836058890 19.0692719538202091   T   T   T
 28.5652937739376362 15.6913125540173155 20.3268776647499436   T   T   T
 25.6920730418233560 18.5867032198970179 21.3365899422752605   T   T   T
 28.5652937739376362 18.2954154184498705 21.8384229903866469   T   T   T
 30.4868696324563047 20.4748397465912930 21.0826503275682953   T   T   T
 25.5390753492566844 18.0163807828823153 19.3201884778759023   T   T   T
 30.6398673250229763 18.4410593191734442 21.5875064663309573   T   T   T
 25.2071075493618295 14.9595835588157424 21.5875064663309573   T   T   T
 27.1286834078804944 14.5349050225246135 19.3201884778759023   T   T   T
 30.1991603586504134 21.2468377310153507 10.7557726628183516   F   F   F
 32.1207362171690818 26.0303649235893282 11.5115453256367015   F   F   F
 27.9715891149984053 23.1349742577096258 10.5018330481113846   F   F   F
 32.1207362171690818 23.4262620591567767 10.0000000000000000   F   F   F
 26.0500132564797369 20.9555499295681997 11.2576057109297345   F   F   F
 30.1991603586504134 23.8509405954479021 12.2673179884550532   F   F   F
 33.0723810907646936 23.5596527940007547 12.7691510365664360   F   F   F
 34.9939569492833655 25.7390771221421808 12.0133783737480861   F   F   F
 30.0461626660837453 23.2806181584331995 10.2509165240556932   F   F   F
 28.1245868075650769 23.7052966947243284 12.5182345125107446   F   F   F
 33.5573465832262201 27.1867724550820320 12.5182345125107446   F   F   F
 35.4789224417448921 26.7620939187909030 10.2509165240556932   F   F   F
 30.1991603586504134 26.4550434598804571 13.7788633140917529   F   F   F
 28.2775845001317450 24.2756191317390346 14.5346359769101046   F   F   F
 31.1508052322460252 21.3802284658593322 13.5249236993847894   F   F   F
 28.2775845001317450 21.6715162673064796 13.0230906512734030   F   F   F
 33.0723810907646936 26.1637556584333097 14.2806963622031375   F   F   F
 26.3560086416130765 22.0961948035976086 15.2904086397284544   F   F   F
 29.2292293737273567 21.8049070021504612 15.7922416878398408   F   F   F
 31.1508052322460252 23.9843313302918837 15.0364690250214892   F   F   F
 26.2030109490464085 21.5258723665829059 13.2740071753290962   F   F   F
 31.3038029248126968 21.9505509028740349 15.5413251637841476   F   F   F
 29.7141948661888868 25.4320266632317349 15.5413251637841476   F   F   F
 31.6357707247075552 25.0073481269406059 13.2740071753290962   F   F   F
 33.3783764758980297 24.7002976680301636 16.8019539653651577   T   T   T
 31.4568006173793648 22.5208733398887375 17.5577266281835094   T   T   T
 31.1508052322460287 26.5884341947244387 16.5480143506581925   T   T   T
 35.2999523344167017 26.8797219961715896 16.0461813025468061   T   T   T
 29.2292293737273567 24.4090098665830126 17.3037870134765406   T   T   T
 33.3783764758980297 27.3044005324627150 18.3134992910018575   T   T   T
 29.2292293737273567 27.0131127310155676 18.8153323391132403   T   T   T
 27.3076535152086848 22.2295855384415901 18.0595596762948922   T   T   T
 33.2253787833313652 26.7340780954480124 16.2970978266024957   T   T   T
 31.3038029248127003 27.1587566317391413 18.5644158150575542   T   T   T
 32.8934109834365032 23.6772808713814413 18.5644158150575507   T   T   T
 27.7926190076702184 23.2526023350903088 16.2970978266024957   T   T   T
 29.5352247588606964 22.9455518761798665 19.8250446166385643   T   T   T
 31.4568006173793613 27.7290790687538475 20.5808172794569089   T   T   T
 34.3300213494936486 24.8336884028741451 19.5711050019315920   T   T   T
 31.4568006173793684 25.1249762043212925 19.0692719538202091   T   T   T
 32.4084454909749766 22.6542640747327191 20.3268776647499436   T   T   T
 29.5352247588606964 25.5496547406124215 21.3365899422752605   T   T   T
 32.4084454909749766 25.2583669391652741 21.8384229903866469   T   T   T
 34.3300213494936486 27.4377912673067001 21.0826503275682953   T   T   T
 29.3822270662940248 24.9793323035977188 19.3201884778759023   T   T   T
 34.4830190420603202 25.4040108398888478 21.5875064663309573   T   T   T
 29.0502592663991699 21.9225350795311478 21.5875064663309573   T   T   T
 30.9718351249178383 21.4978565432400153 19.3201884778759023   T   T   T
 25.6920730418233525  0.3579831688691390 10.7557726628183516   F   F   F
 27.6136489003420209  5.1415103614431183 11.5115453256367015   F   F   F
 23.4645017981713444  2.2461196955634155 10.5018330481113846   F   F   F
 27.6136489003420209  2.5374074970105642 10.0000000000000000   F   F   F
 21.5429259396526760  0.0666953674219896 11.2576057109297345   F   F   F
 25.6920730418233525  2.9620860333016927 12.2673179884550532   F   F   F
 28.5652937739376327  2.6707982318545445 12.7691510365664360   F   F   F
 30.4868696324563047  4.8502225599959692 12.0133783737480861   F   F   F
 25.5390753492566844  2.3917635962869896 10.2509165240556932   F   F   F
 23.6174994907380160  2.8164421325781182 12.5182345125107446   F   F   F
 29.0502592663991628  6.2979178929358204 12.5182345125107446   F   F   F
 30.9718351249178312  5.8732393566446905 10.2509165240556932   F   F   F
 25.6920730418233525  5.5661888977342482 13.7788633140917529   F   F   F
 23.7704971833046841  3.3867645695928230 14.5346359769101046   F   F   F
 26.6437179154189643  0.4913739037131198 13.5249236993847894   F   F   F
 23.7704971833046841  0.7826617051602689 13.0230906512734030   F   F   F
 28.5652937739376327  5.2749010962870990 14.2806963622031375   F   F   F
 21.8489213247860157  1.2073402414513978 15.2904086397284544   F   F   F
 24.7221420569002959  0.9160524400042495 15.7922416878398408   F   F   F
 26.6437179154189643  3.0954767681456739 15.0364690250214892   F   F   F
 21.6959236322193476  0.6370178044366941 13.2740071753290962   F   F   F
 26.7967156079856359  1.0616963407278230 15.5413251637841476   F   F   F
 25.2071075493618260  4.5431721010855250 15.5413251637841476   F   F   F
 27.1286834078804944  4.1184935647943952 13.2740071753290962   F   F   F
 28.8712891590709724  3.8114431058839533 16.8019539653651577   T   T   T
 26.9497133005523040  1.6320187777425283 17.5577266281835094   T   T   T
 26.6437179154189678  5.6995796325782289 16.5480143506581925   T   T   T
 30.7928650175896408  5.9908674340253771 16.0461813025468061   T   T   T
 24.7221420569002959  3.5201553044368032 17.3037870134765406   T   T   T
 28.8712891590709724  6.4155459703165061 18.3134992910018575   T   T   T
 24.7221420569002959  6.1242581688693578 18.8153323391132403   T   T   T
 22.8005661983816239  1.3407309762953790 18.0595596762948922   T   T   T
 28.7182914665043043  5.8452235333018017 16.2970978266024957   T   T   T
 26.7967156079856395  6.2699020695929306 18.5644158150575542   T   T   T
 28.3863236666094423  2.7884263092352306 18.5644158150575507   T   T   T
 23.2855316908431575  2.3637477729440999 16.2970978266024957   T   T   T
 25.0281374420336356  2.0566973140336571 19.8250446166385643   T   T   T
 26.9497133005523004  6.8402245066076359 20.5808172794569089   T   T   T
 29.8229340326665842  3.9448338407279331 19.5711050019315920   T   T   T
 26.9497133005523075  4.2361216421750818 19.0692719538202091   T   T   T
 27.9013581741479157  1.7654095125865086 20.3268776647499436   T   T   T
 25.0281374420336356  4.6608001784662108 21.3365899422752605   T   T   T
 27.9013581741479157  4.3695123770190634 21.8384229903866469   T   T   T
 29.8229340326665842  6.5489367051604876 21.0826503275682953   T   T   T
 24.8751397494669639  4.0904777414515090 19.3201884778759023   T   T   T
 29.9759317252332558  4.5151562777426371 21.5875064663309573   T   T   T
 24.5431719495721090  1.0336805173849359 21.5875064663309573   T   T   T
 26.4647478080907774  0.6090019810938055 19.3201884778759023   T   T   T
 29.5352247588606893  7.3209346895845426 10.7557726628183516   F   F   F
 31.4568006173793577 12.1044618821585210 11.5115453256367015   F   F   F
 27.3076535152086812  9.2090712162788186 10.5018330481113846   F   F   F
 31.4568006173793577  9.5003590177259678 10.0000000000000000   F   F   F
 25.3860776566900128  7.0296468881373935 11.2576057109297345   F   F   F
 29.5352247588606893  9.9250375540170968 12.2673179884550532   F   F   F
 32.4084454909749695  9.6337497525699476 12.7691510365664360   F   F   F
 34.3300213494936415 11.8131740807113736 12.0133783737480861   F   F   F
 29.3822270662940213  9.3547151170023923 10.2509165240556932   F   F   F
 27.4606512077753528  9.7793936532935213 12.5182345125107446   F   F   F
 32.8934109834364961 13.2608694136512248 12.5182345125107446   F   F   F
 34.8149868419551680 12.8361908773600941 10.2509165240556932   F   F   F
 29.5352247588606893 12.5291404184496518 13.7788633140917529   F   F   F
 27.6136489003420209 10.3497160903082275 14.5346359769101046   F   F   F
 30.4868696324563011  7.4543254244285233 13.5249236993847894   F   F   F
 27.6136489003420209  7.7456132258756725 13.0230906512734030   F   F   F
 32.4084454909749695 12.2378526170025026 14.2806963622031375   F   F   F
 25.6920730418233525  8.1702917621668014 15.2904086397284544   F   F   F
 28.5652937739376327  7.8790039607196531 15.7922416878398408   F   F   F
 30.4868696324563011 10.0584282888610765 15.0364690250214892   F   F   F
 25.5390753492566844  7.5999693251520979 13.2740071753290962   F   F   F
 30.6398673250229727  8.0246478614432259 15.5413251637841476   F   F   F
 29.0502592663991628 11.5061236218009277 15.5413251637841476   F   F   F
 30.9718351249178312 11.0814450855097988 13.2740071753290962   F   F   F
 32.7144408761083056 10.7743946265993564 16.8019539653651577   T   T   T
 30.7928650175896408  8.5949702984579321 17.5577266281835094   T   T   T
 30.4868696324563047 12.6625311532936315 16.5480143506581925   T   T   T
 34.6360167346269776 12.9538189547407807 16.0461813025468061   T   T   T
 28.5652937739376327 10.4831068251522073 17.3037870134765406   T   T   T
 32.7144408761083056 13.3784974910319097 18.3134992910018575   T   T   T
 28.5652937739376327 13.0872096895847605 18.8153323391132403   T   T   T
 26.6437179154189607  8.3036824970107830 18.0595596762948922   T   T   T
 32.5614431835416411 12.8081750540172052 16.2970978266024957   T   T   T
 30.6398673250229763 13.2328535903083342 18.5644158150575542   T   T   T
 32.2294753836467791  9.7513778299506342 18.5644158150575507   T   T   T
 27.1286834078804944  9.3266992936595035 16.2970978266024957   T   T   T
 28.8712891590709724  9.0196488347490611 19.8250446166385643   T   T   T
 30.7928650175896372 13.8031760273230404 20.5808172794569089   T   T   T
 33.6660857497039245 10.9077853614433362 19.5711050019315920   T   T   T
 30.7928650175896443 11.1990731628904854 19.0692719538202091   T   T   T
 31.7445098911852526  8.7283610333019119 20.3268776647499436   T   T   T
 28.8712891590709724 11.6237516991816143 21.3365899422752605   T   T   T
 31.7445098911852526 11.3324638977344669 21.8384229903866469   T   T   T
 33.6660857497039245 13.5118882258758912 21.0826503275682953   T   T   T
 28.7182914665043008 11.0534292621669117 19.3201884778759023   T   T   T
 33.8190834422705962 11.4781077984580406 21.5875064663309573   T   T   T
 28.3863236666094458  7.9966320381003397 21.5875064663309573   T   T   T
 30.3078995251281142  7.5719535018092090 19.3201884778759023   T   T   T
 33.3783764758980297 14.2838862102999453 10.7557726628183516   F   F   F
 35.2999523344167017 19.0674134028739246 11.5115453256367015   F   F   F
 31.1508052322460216 16.1720227369942222 10.5018330481113846   F   F   F
 35.2999523344167017 16.4633105384413696 10.0000000000000000   F   F   F
 29.2292293737273532 13.9925984088527962 11.2576057109297345   F   F   F
 33.3783764758980297 16.8879890747324986 12.2673179884550532   F   F   F
 36.2515972080123134 16.5967012732853512 12.7691510365664360   F   F   F
 38.1731730665309783 18.7761256014267772 12.0133783737480861   F   F   F
 33.2253787833313581 16.3176666377177959 10.2509165240556932   F   F   F
 31.3038029248126932 16.7423451740089249 12.5182345125107446   F   F   F
 36.7365627004738400 20.2238209343666284 12.5182345125107446   F   F   F
 38.6581385589925048 19.7991423980754959 10.2509165240556932   F   F   F
 33.3783764758980297 19.4920919391650571 13.7788633140917529   F   F   F
 31.4568006173793613 17.3126676110236311 14.5346359769101046   F   F   F
 34.3300213494936415 14.4172769451439269 13.5249236993847894   F   F   F
 31.4568006173793613 14.7085647465910760 13.0230906512734030   F   F   F
 36.2515972080123134 19.2008041377179062 14.2806963622031375   F   F   F
 29.5352247588606929 15.1332432828822050 15.2904086397284544   F   F   F
 32.4084454909749766 14.8419554814350558 15.7922416878398408   F   F   F
 34.3300213494936415 17.0213798095764801 15.0364690250214892   F   F   F
 29.3822270662940213 14.5629208458675006 13.2740071753290962   F   F   F
 34.4830190420603131 14.9875993821586295 15.5413251637841476   F   F   F
 32.8934109834365032 18.4690751425163313 15.5413251637841476   F   F   F
 34.8149868419551680 18.0443966062252024 13.2740071753290962   F   F   F
 36.5575925931456496 17.7373461473147600 16.8019539653651577   T   T   T
 34.6360167346269776 15.5579218191733357 17.5577266281835094   T   T   T
 34.3300213494936415 19.6254826740090351 16.5480143506581925   T   T   T
 38.4791684516643215 19.9167704754561825 16.0461813025468061   T   T   T
 32.4084454909749695 17.4460583458676091 17.3037870134765406   T   T   T
 36.5575925931456496 20.3414490117473150 18.3134992910018575   T   T   T
 32.4084454909749695 20.0501612103001641 18.8153323391132403   T   T   T
 30.4868696324563011 15.2666340177261866 18.0595596762948922   T   T   T
 36.4045949005789780 19.7711265747326088 16.2970978266024957   T   T   T
 34.4830190420603131 20.1958051110237378 18.5644158150575542   T   T   T
 36.0726271006841230 16.7143293506660378 18.5644158150575507   T   T   T
 30.9718351249178312 16.2896508143749088 16.2970978266024957   T   T   T
 32.7144408761083128 15.9826003554644647 19.8250446166385643   T   T   T
 34.6360167346269776 20.7661275480384440 20.5808172794569089   T   T   T
 37.5092374667412614 17.8707368821587416 19.5711050019315920   T   T   T
 34.6360167346269847 18.1620246836058890 19.0692719538202091   T   T   T
 35.5876616082225894 15.6913125540173155 20.3268776647499436   T   T   T
 32.7144408761083128 18.5867032198970179 21.3365899422752605   T   T   T
 35.5876616082225894 18.2954154184498705 21.8384229903866469   T   T   T
 37.5092374667412614 20.4748397465912930 21.0826503275682953   T   T   T
 32.5614431835416411 18.0163807828823153 19.3201884778759023   T   T   T
 37.6622351593079330 18.4410593191734442 21.5875064663309573   T   T   T
 32.2294753836467862 14.9595835588157424 21.5875064663309573   T   T   T
 34.1510512421654511 14.5349050225246135 19.3201884778759023   T   T   T
 37.2215281929353665 21.2468377310153507 10.7557726628183516   F   F   F
 39.1431040514540385 26.0303649235893282 11.5115453256367015   F   F   F
 34.9939569492833655 23.1349742577096258 10.5018330481113846   F   F   F
 39.1431040514540385 23.4262620591567767 10.0000000000000000   F   F   F
 33.0723810907646936 20.9555499295681997 11.2576057109297345   F   F   F
 37.2215281929353665 23.8509405954479021 12.2673179884550532   F   F   F
 40.0947489250496503 23.5596527940007547 12.7691510365664360   F   F   F
 42.0163247835683222 25.7390771221421808 12.0133783737480861   F   F   F
 37.0685305003687020 23.2806181584331995 10.2509165240556932   F   F   F
 35.1469546418500300 23.7052966947243284 12.5182345125107446   F   F   F
 40.5797144175111768 27.1867724550820320 12.5182345125107446   F   F   F
 42.5012902760298488 26.7620939187909030 10.2509165240556932   F   F   F
 37.2215281929353665 26.4550434598804571 13.7788633140917529   F   F   F
 35.2999523344167017 24.2756191317390346 14.5346359769101046   F   F   F
 38.1731730665309854 21.3802284658593322 13.5249236993847894   F   F   F
 35.2999523344167017 21.6715162673064796 13.0230906512734030   F   F   F
 40.0947489250496503 26.1637556584333097 14.2806963622031375   F   F   F
 33.3783764758980297 22.0961948035976086 15.2904086397284544   F   F   F
 36.2515972080123134 21.8049070021504612 15.7922416878398408   F   F   F
 38.1731730665309854 23.9843313302918837 15.0364690250214892   F   F   F
 33.2253787833313652 21.5258723665829059 13.2740071753290962   F   F   F
 38.3261707590976499 21.9505509028740349 15.5413251637841476   F   F   F
 36.7365627004738400 25.4320266632317349 15.5413251637841476   F   F   F
 38.6581385589925119 25.0073481269406059 13.2740071753290962   F   F   F
 40.4007443101829864 24.7002976680301636 16.8019539653651577   T   T   T
 38.4791684516643215 22.5208733398887375 17.5577266281835094   T   T   T
 38.1731730665309854 26.5884341947244387 16.5480143506581925   T   T   T
 42.3223201687016584 26.8797219961715896 16.0461813025468061   T   T   T
 36.2515972080123134 24.4090098665830126 17.3037870134765406   T   T   T
 40.4007443101829864 27.3044005324627150 18.3134992910018575   T   T   T
 36.2515972080123134 27.0131127310155676 18.8153323391132403   T   T   T
 34.3300213494936415 22.2295855384415901 18.0595596762948922   T   T   T
 40.2477466176163219 26.7340780954480124 16.2970978266024957   T   T   T
 38.3261707590976570 27.1587566317391413 18.5644158150575542   T   T   T
 39.9157788177214599 23.6772808713814413 18.5644158150575507   T   T   T
 34.8149868419551751 23.2526023350903088 16.2970978266024957   T   T   T
 36.5575925931456496 22.9455518761798665 19.8250446166385643   T   T   T
 38.4791684516643215 27.7290790687538475 20.5808172794569089   T   T   T
 41.3523891837785982 24.8336884028741451 19.5711050019315920   T   T   T
 38.4791684516643215 25.1249762043212925 19.0692719538202091   T   T   T
 39.4308133252599333 22.6542640747327191 20.3268776647499436   T   T   T
 36.5575925931456496 25.5496547406124215 21.3365899422752605   T   T   T
 39.4308133252599333 25.2583669391652741 21.8384229903866469   T   T   T
 41.3523891837785982 27.4377912673067001 21.0826503275682953   T   T   T
 36.4045949005789851 24.9793323035977188 19.3201884778759023   T   T   T
 41.5053868763452698 25.4040108398888478 21.5875064663309573   T   T   T
 36.0726271006841230 21.9225350795311478 21.5875064663309573   T   T   T
 37.9942029592027950 21.4978565432400153 19.3201884778759023   T   T   T
