Mo Pt Mo N  Mo N  Mo N  Mo N 
 1.0000000000000000
     9.9555555555555557    0.0000000000000000   -0.4085505846855601
     0.0000000000000019   11.8793939239339981    0.0000000000000007
     0.0000000000000000    0.0000000000000000   28.6974134085945281
 Mo  Pt  Mo  N   Mo  N   Mo  N   Mo  N  
   8   1   7   8  16   8  16   8  16   8
Selective dynamics
Cartesian
  0.9544985664445547  0.0000000000000000 10.1331870934653132   F   F   F
  1.5767207886667762  2.9698484809835008 17.2671088414362544   T   T   T
  4.6878318997778861  0.0000000000000000 14.7529513972174176   T   T   T
  2.8211652331112207  2.9698484809834995 12.4430692453413645   F   F   F
  1.5767207886667747  0.0000000000000000 17.2671088414362544   T   T   T
  4.6878318997778878  2.9698484809834991 14.7529513972174176   T   T   T
  2.8211652331112194  0.0000000000000000 12.4430692453413645   F   F   F
  0.9544985664445551  2.9698484809834995 10.1331870934653132   F   F   F
  4.0656096775556643  4.4547727214752495 17.1649711952648616   T   T   T
  2.1989430108889985  1.4849242404917491 14.8550890433888068   T   T   T
  0.3322763442223309  4.4547727214752495 12.5452068915127537   F   F   F
  3.4433874553334438  1.4849242404917484 10.0310494472939222   F   F   F
  4.0656096775556643  1.4849242404917498 17.1649711952648616   T   T   T
  2.1989430108889989  4.4547727214752495 14.8550890433888139   T   T   T
  0.3322763442223304  1.4849242404917484 12.5452068915127501   F   F   F
  3.4433874553334443  4.4547727214752495 10.0310494472939222   F   F   F
  2.5100541220001089  4.4547727214752495 18.4220499173742809   T   T   T
  0.6433874553334427  1.4849242404917498 16.1121677654982278   T   T   T
  3.7544985664445543  4.4547727214752495 13.5980103212793946   F   F   F
  1.8878318997778860  1.4849242404917484 11.2881281694033309   F   F   F
  3.1322763442223303  0.0000000000000000 16.0100301193268351   T   T   T
  1.2656096775556651  2.9698484809834991 13.7001479674507802   F   F   F
  4.3767207886667752  0.0000000000000000 11.1859905232319488   F   F   F
  0.0211652331112207  2.9698484809835008 18.5241875635456736   T   T   T
  0.9544985664445557  5.9396969619669990 10.1331870934653132   F   F   F
  1.5767207886667771  8.9095454429504990 17.2671088414362544   T   T   T
  4.6878318997778869  5.9396969619669990 14.7529513972174176   T   T   T
  2.8211652331112216  8.9095454429504990 12.4430692453413645   F   F   F
  1.5767207886667756  5.9396969619669990 17.2671088414362544   T   T   T
  4.6878318997778887  8.9095454429504990 14.7529513972174176   T   T   T
  2.8211652331112202  5.9396969619669990 12.4430692453413645   F   F   F
  0.9544985664445561  8.9095454429504990 10.1331870934653132   F   F   F
  4.0656096775556652 10.3944696834422494 17.1649711952648616   T   T   T
  2.1989430108889993  7.4246212024587486 14.8550890433888068   T   T   T
  0.3322763442223319 10.3944696834422494 12.5452068915127537   F   F   F
  3.4433874553334447  7.4246212024587477 10.0310494472939222   F   F   F
  4.0656096775556652  7.4246212024587486 17.1649711952648616   T   T   T
  2.1989430108889998 10.3944696834422494 14.8550890433888139   T   T   T
  0.3322763442223314  7.4246212024587477 12.5452068915127501   F   F   F
  3.4433874553334451 10.3944696834422494 10.0310494472939222   F   F   F
  2.5100541220001098 10.3944696834422494 18.4220499173742809   T   T   T
  0.6433874553334437  7.4246212024587486 16.1121677654982278   T   T   T
  3.7544985664445552 10.3944696834422494 13.5980103212793946   F   F   F
  1.8878318997778869  7.4246212024587477 11.2881281694033309   F   F   F
  3.1322763442223311  5.9396969619669990 16.0100301193268351   T   T   T
  1.2656096775556660  8.9095454429504990 13.7001479674507802   F   F   F
  4.3767207886667761  5.9396969619669990 11.1859905232319488   F   F   F
  0.0211652331112216  8.9095454429504990 18.5241875635456736   T   T   T
  5.9322763442223323  0.0000000000000000  9.9289118011225330   F   F   F
  6.5544985664445541  2.9698484809835008 17.0628335490934759   T   T   T
  9.6656096775556648  0.0000000000000000 14.5486761048746391   T   T   T
  7.7989430108889986  2.9698484809834995 12.2387939529985861   F   F   F
  6.5544985664445523  0.0000000000000000 17.0628335490934759   T   T   T
  9.6656096775556648  2.9698484809834991 14.5486761048746391   T   T   T
  7.7989430108889977  0.0000000000000000 12.2387939529985861   F   F   F
  5.9322763442223332  2.9698484809834995  9.9289118011225330   F   F   F
  9.0433874553334412  4.4547727214752495 16.9606959029220832   T   T   T
  7.1767207886667759  1.4849242404917491 14.6508137510460283   T   T   T
  5.3100541220001087  4.4547727214752495 12.3409315991699753   F   F   F
  8.4211652331112212  1.4849242404917484  9.8267741549511420   F   F   F
  9.0433874553334412  1.4849242404917498 16.9606959029220832   T   T   T
  7.1767207886667768  4.4547727214752495 14.6508137510460354   T   T   T
  5.3100541220001087  1.4849242404917484 12.3409315991699717   F   F   F
  8.4211652331112212  4.4547727214752495  9.8267741549511420   F   F   F
  7.4878318997778868  4.4547727214752495 18.2177746250315025   T   T   T
  5.6211652331112205  1.4849242404917498 15.9078924731554476   T   T   T
  8.7322763442223312  4.4547727214752495 13.3937350289366162   F   F   F
  6.8656096775556641  1.4849242404917484 11.0838528770605524   F   F   F
  8.1100541220001077  0.0000000000000000 15.8057548269840584   T   T   T
  6.2433874553334432  2.9698484809834991 13.4958726751080018   F   F   F
  9.3544985664445530  0.0000000000000000 10.9817152308891703   F   F   F
  4.9989430108889987  2.9698484809835008 18.3199122712028952   T   T   T
  5.9322763442223332  5.9396969619669990  9.9289118011225330   F   F   F
  6.5544985664445550  8.9095454429504990 17.0628335490934759   T   T   T
  9.6656096775556648  5.9396969619669990 14.5486761048746391   T   T   T
  7.7989430108889994  8.9095454429504990 12.2387939529985861   F   F   F
  6.5544985664445532  5.9396969619669990 17.0628335490934759   T   T   T
  9.6656096775556666  8.9095454429504990 14.5486761048746391   T   T   T
  7.7989430108889977  5.9396969619669990 12.2387939529985861   F   F   F
  5.9322763442223341  8.9095454429504990  9.9289118011225330   F   F   F
  9.0433874553334430 10.3944696834422494 16.9606959029220832   T   T   T
  7.1767207886667777  7.4246212024587486 14.6508137510460283   T   T   T
  5.3100541220001096 10.3944696834422494 12.3409315991699753   F   F   F
  8.4211652331112230  7.4246212024587477  9.8267741549511420   F   F   F
  9.0433874553334430  7.4246212024587486 16.9606959029220832   T   T   T
  7.1767207886667777 10.3944696834422494 14.6508137510460354   T   T   T
  5.3100541220001087  7.4246212024587477 12.3409315991699717   F   F   F
  8.4211652331112230 10.3944696834422494  9.8267741549511420   F   F   F
  7.4878318997778877 10.3944696834422494 18.2177746250315025   T   T   T
  5.6211652331112214  7.4246212024587486 15.9078924731554476   T   T   T
  8.7322763442223330 10.3944696834422494 13.3937350289366162   F   F   F
  6.8656096775556650  7.4246212024587477 11.0838528770605524   F   F   F
  8.1100541220001094  5.9396969619669990 15.8057548269840584   T   T   T
  6.2433874553334441  8.9095454429504990 13.4958726751080018   F   F   F
  9.3544985664445548  5.9396969619669990 10.9817152308891703   F   F   F
  4.9989430108889996  8.9095454429504990 18.3199122712028952   T   T   T
