Mo B  Mo B  Mo B  Mo B  Mo B  Mo Ru Mo B  Mo B  Mo B  Mo B 
 1.0000000000000000
     9.3149999999999995    0.0000000000000000   -0.0000000000000015
     0.0000000000000027   16.9699999999999989   -0.0000000000000027
     0.0000000000000000    0.0000000000000000   27.7625000000000028
 Mo  B   Mo  B   Mo  B   Mo  B   Mo  B   Mo  Ru  Mo  B   Mo  B   Mo  B   Mo  B  
   8   8   8   8   8   8   8   8   8   8   5   1   2   8   8   8   8   8   8   8
Selective dynamics
Cartesian
  0.0000000000000012  7.5855899999999972 10.0000000000000000   F   F   F
  1.5525000000000020 11.8280899999999978 10.0000000000000000   F   F   F
  0.0000000000000022 13.6269099999999987 11.5524999999999984   F   F   F
  0.0000000000000001  0.8994099999999988 10.0000000000000018   F   F   F
  1.5525000000000027 16.0705899999999993 11.5524999999999967   F   F   F
  1.5525000000000015  9.3844099999999990 11.5524999999999984   F   F   F
  1.5525000000000009  5.1419100000000002 10.0000000000000000   F   F   F
  0.0000000000000005  3.3430899999999970 11.5525000000000002   F   F   F
  0.0000000000000016 10.2159399999999998 10.0000000000000000   F   F   F
  1.5525000000000022 14.4584399999999995 10.0000000000000000   F   F   F
  0.0000000000000018 10.9965599999999988 11.5524999999999984   F   F   F
  0.0000000000000025 15.2390599999999967 10.0000000000000000   F   F   F
  1.5525000000000002  1.7309399999999995 11.5525000000000002   F   F   F
  1.5525000000000011  6.7540599999999964 11.5524999999999984   F   F   F
  1.5525000000000004  2.5115599999999962 10.0000000000000018   F   F   F
  0.0000000000000010  5.9734399999999992 11.5524999999999984   F   F   F
  0.0000000000000012  7.5855899999999972 13.1049999999999986   F   F   F
  1.5525000000000020 11.8280899999999978 13.1049999999999986   F   F   F
  0.0000000000000022 13.6269099999999987 14.6574999999999935   T   T   T
  0.0000000000000001  0.8994099999999988 13.1050000000000004   F   F   F
  1.5525000000000027 16.0705899999999993 14.6574999999999935   T   T   T
  1.5525000000000015  9.3844099999999990 14.6574999999999971   T   T   T
  1.5525000000000009  5.1419100000000002 13.1049999999999986   F   F   F
  0.0000000000000005  3.3430899999999970 14.6574999999999971   T   T   T
  0.0000000000000016 10.2159399999999998 13.1049999999999986   F   F   F
  1.5525000000000022 14.4584399999999995 13.1049999999999986   F   F   F
  0.0000000000000018 10.9965599999999988 14.6574999999999971   T   T   T
  0.0000000000000025 15.2390599999999967 13.1049999999999986   F   F   F
  1.5525000000000002  1.7309399999999995 14.6574999999999971   T   T   T
  1.5525000000000011  6.7540599999999964 14.6574999999999971   T   T   T
  1.5525000000000004  2.5115599999999962 13.1050000000000004   F   F   F
  0.0000000000000010  5.9734399999999992 14.6574999999999971   T   T   T
  0.0000000000000012  7.5855899999999972 16.2099999999999973   T   T   T
  1.5525000000000020 11.8280899999999978 16.2099999999999937   T   T   T
  0.0000000000000022 13.6269099999999987 17.7624999999999957   T   T   T
  0.0000000000000001  0.8994099999999988 16.2099999999999973   T   T   T
  1.5525000000000027 16.0705899999999993 17.7624999999999957   T   T   T
  1.5525000000000015  9.3844099999999990 17.7624999999999993   T   T   T
  1.5525000000000009  5.1419100000000002 16.2099999999999973   T   T   T
  0.0000000000000005  3.3430899999999970 17.7624999999999993   T   T   T
  0.0000000000000016 10.2159399999999998 16.2099999999999973   T   T   T
  1.5525000000000022 14.4584399999999995 16.2099999999999937   T   T   T
  0.0000000000000018 10.9965599999999988 17.7624999999999993   T   T   T
  0.0000000000000025 15.2390599999999967 16.2099999999999937   T   T   T
  1.5525000000000002  1.7309399999999995 17.7624999999999993   T   T   T
  1.5525000000000011  6.7540599999999964 17.7624999999999993   T   T   T
  1.5525000000000004  2.5115599999999962 16.2099999999999973   T   T   T
  0.0000000000000010  5.9734399999999992 17.7624999999999993   T   T   T
  3.1050000000000013  7.5855899999999972 10.0000000000000000   F   F   F
  4.6575000000000024 11.8280899999999978 10.0000000000000000   F   F   F
  3.1050000000000022 13.6269099999999987 11.5524999999999984   F   F   F
  3.1050000000000000  0.8994099999999988 10.0000000000000018   F   F   F
  4.6575000000000024 16.0705899999999993 11.5524999999999967   F   F   F
  4.6575000000000015  9.3844099999999990 11.5524999999999984   F   F   F
  4.6575000000000006  5.1419100000000002 10.0000000000000000   F   F   F
  3.1050000000000004  3.3430899999999970 11.5525000000000002   F   F   F
  3.1050000000000018 10.2159399999999998 10.0000000000000000   F   F   F
  4.6575000000000024 14.4584399999999995 10.0000000000000000   F   F   F
  3.1050000000000018 10.9965599999999988 11.5524999999999984   F   F   F
  3.1050000000000026 15.2390599999999967 10.0000000000000000   F   F   F
  4.6575000000000006  1.7309399999999995 11.5525000000000002   F   F   F
  4.6575000000000006  6.7540599999999964 11.5524999999999984   F   F   F
  4.6575000000000006  2.5115599999999962 10.0000000000000018   F   F   F
  3.1050000000000009  5.9734399999999992 11.5524999999999984   F   F   F
  3.1050000000000013  7.5855899999999972 13.1049999999999986   F   F   F
  4.6575000000000024 11.8280899999999978 13.1049999999999986   F   F   F
  3.1050000000000022 13.6269099999999987 14.6574999999999935   T   T   T
  3.1050000000000000  0.8994099999999988 13.1050000000000004   F   F   F
  4.6575000000000024 16.0705899999999993 14.6574999999999935   T   T   T
  4.6575000000000015  9.3844099999999990 14.6574999999999971   T   T   T
  4.6575000000000006  5.1419100000000002 13.1049999999999986   F   F   F
  3.1050000000000004  3.3430899999999970 14.6574999999999971   T   T   T
  3.1050000000000018 10.2159399999999998 13.1049999999999986   F   F   F
  4.6575000000000024 14.4584399999999995 13.1049999999999986   F   F   F
  3.1050000000000018 10.9965599999999988 14.6574999999999971   T   T   T
  3.1050000000000026 15.2390599999999967 13.1049999999999986   F   F   F
  4.6575000000000006  1.7309399999999995 14.6574999999999971   T   T   T
  4.6575000000000006  6.7540599999999964 14.6574999999999971   T   T   T
  4.6575000000000006  2.5115599999999962 13.1050000000000004   F   F   F
  3.1050000000000009  5.9734399999999992 14.6574999999999971   T   T   T
  3.1050000000000013  7.5855899999999972 16.2099999999999973   T   T   T
  4.6575000000000024 11.8280899999999978 16.2099999999999937   T   T   T
  3.1050000000000022 13.6269099999999987 17.7624999999999957   T   T   T
  3.1050000000000000  0.8994099999999988 16.2099999999999973   T   T   T
  4.6575000000000024 16.0705899999999993 17.7624999999999957   T   T   T
  4.6575000000000015  9.3844099999999990 17.7624999999999993   T   T   T
  4.6575000000000006  5.1419100000000002 16.2099999999999973   T   T   T
  3.1050000000000004  3.3430899999999970 17.7624999999999993   T   T   T
  3.1050000000000018 10.2159399999999998 16.2099999999999973   T   T   T
  4.6575000000000024 14.4584399999999995 16.2099999999999937   T   T   T
  3.1050000000000018 10.9965599999999988 17.7624999999999993   T   T   T
  3.1050000000000026 15.2390599999999967 16.2099999999999937   T   T   T
  4.6575000000000006  1.7309399999999995 17.7624999999999993   T   T   T
  4.6575000000000006  6.7540599999999964 17.7624999999999993   T   T   T
  4.6575000000000006  2.5115599999999962 16.2099999999999973   T   T   T
  3.1050000000000009  5.9734399999999992 17.7624999999999993   T   T   T
  6.2100000000000009  7.5855899999999972  9.9999999999999982   F   F   F
  7.7625000000000020 11.8280899999999978  9.9999999999999982   F   F   F
  6.2100000000000017 13.6269099999999987 11.5524999999999967   F   F   F
  6.2100000000000000  0.8994099999999988 10.0000000000000000   F   F   F
  7.7625000000000028 16.0705899999999993 11.5524999999999949   F   F   F
  7.7625000000000011  9.3844099999999990 11.5524999999999967   F   F   F
  7.7625000000000011  5.1419100000000002  9.9999999999999982   F   F   F
  6.2100000000000009  3.3430899999999970 11.5524999999999984   F   F   F
  6.2100000000000017 10.2159399999999998  9.9999999999999982   F   F   F
  7.7625000000000020 14.4584399999999995  9.9999999999999982   F   F   F
  6.2100000000000017 10.9965599999999988 11.5524999999999967   F   F   F
  6.2100000000000026 15.2390599999999967  9.9999999999999982   F   F   F
  7.7625000000000002  1.7309399999999995 11.5524999999999984   F   F   F
  7.7625000000000011  6.7540599999999964 11.5524999999999967   F   F   F
  7.7625000000000002  2.5115599999999962 10.0000000000000000   F   F   F
  6.2100000000000009  5.9734399999999992 11.5524999999999967   F   F   F
  6.2100000000000009  7.5855899999999972 13.1049999999999969   F   F   F
  7.7625000000000020 11.8280899999999978 13.1049999999999969   F   F   F
  6.2100000000000017 13.6269099999999987 14.6574999999999935   T   T   T
  6.2100000000000000  0.8994099999999988 13.1049999999999986   F   F   F
  7.7625000000000028 16.0705899999999993 14.6574999999999935   T   T   T
  7.7625000000000011  9.3844099999999990 14.6574999999999971   T   T   T
  7.7625000000000011  5.1419100000000002 13.1049999999999969   F   F   F
  6.2100000000000009  3.3430899999999970 14.6574999999999971   T   T   T
  6.2100000000000017 10.2159399999999998 13.1049999999999969   F   F   F
  7.7625000000000020 14.4584399999999995 13.1049999999999969   F   F   F
  6.2100000000000017 10.9965599999999988 14.6574999999999971   T   T   T
  6.2100000000000026 15.2390599999999967 13.1049999999999969   F   F   F
  7.7625000000000002  1.7309399999999995 14.6574999999999971   T   T   T
  7.7625000000000011  6.7540599999999964 14.6574999999999971   T   T   T
  7.7625000000000002  2.5115599999999962 13.1049999999999986   F   F   F
  6.2100000000000009  5.9734399999999992 14.6574999999999971   T   T   T
  6.2100000000000009  7.5855899999999972 16.2099999999999973   T   T   T
  7.7625000000000020 11.8280899999999978 16.2099999999999937   T   T   T
  6.2100000000000017 13.6269099999999987 17.7624999999999957   T   T   T
  6.2100000000000000  0.8994099999999988 16.2099999999999973   T   T   T
  7.7625000000000028 16.0705899999999993 17.7624999999999957   T   T   T
  7.7625000000000011  9.3844099999999990 17.7624999999999993   T   T   T
  7.7625000000000011  5.1419100000000002 16.2099999999999973   T   T   T
  6.2100000000000009  3.3430899999999970 17.7624999999999993   T   T   T
  6.2100000000000017 10.2159399999999998 16.2099999999999973   T   T   T
  7.7625000000000020 14.4584399999999995 16.2099999999999937   T   T   T
  6.2100000000000017 10.9965599999999988 17.7624999999999993   T   T   T
  6.2100000000000026 15.2390599999999967 16.2099999999999937   T   T   T
  7.7625000000000002  1.7309399999999995 17.7624999999999993   T   T   T
  7.7625000000000011  6.7540599999999964 17.7624999999999993   T   T   T
  7.7625000000000002  2.5115599999999962 16.2099999999999973   T   T   T
  6.2100000000000009  5.9734399999999992 17.7624999999999993   T   T   T
