Ti Ni C  O  Au
 1.0000000000000000
    21.2661609135264449    0.0000000000000000    0.0000000000000013
    10.6330804567632278   18.4170355920815823    0.0000000000000013
     0.0000000000000000    0.0000000000000000   55.2968188426424732
 Ti  Ni  C   O   Au 
 288 292 192 192   2
Selective dynamics
Cartesian
  8.8609003806360231 12.2780237280543876 51.4083010717629421   T   T   T
 11.5191704948268274 13.8127766940611849 51.4083010717629421   T   T   T
 14.1774406090176335 15.3475296600679822 51.4083010717629421   T   T   T
  6.2026302664452144  7.6737648300339929 51.4083010717629421   T   T   T
  8.8609003806360196  9.2085177960407893 51.4083010717629421   T   T   T
 11.5191704948268274 10.7432707620475885 51.4083010717629421   T   T   T
 14.1774406090176335 12.2780237280543876 51.4083010717629421   T   T   T
 16.8357107232084360 13.8127766940611849 51.4083010717629421   T   T   T
 19.4939808373992420 15.3475296600679822 51.4083010717629421   T   T   T
  3.5443601522544075  3.0695059320135973 51.4083010717629421   T   T   T
  6.2026302664452153  4.6042588980203956 51.4083010717629421   T   T   T
  8.8609003806360178  6.1390118640271938 51.4083010717629421   T   T   T
 11.5191704948268239  7.6737648300339929 51.4083010717629421   T   T   T
 14.1774406090176335  9.2085177960407893 51.4083010717629421   T   T   T
 16.8357107232084360 10.7432707620475885 51.4083010717629421   T   T   T
 19.4939808373992420 12.2780237280543876 51.4083010717629421   T   T   T
 22.1522509515900481 13.8127766940611849 51.4083010717629421   T   T   T
 24.8105210657808612 15.3475296600679822 51.4083010717629421   T   T   T
 11.5191704948268292 16.8822826260747796 51.4083010717629421   T   T   T
  3.5443601522544075  0.0000000000000000 51.4083010717629421   T   T   T
  6.2026302664452135  1.5347529660067984 51.4083010717629421   T   T   T
  8.8609003806360214  3.0695059320135973 51.4083010717629421   T   T   T
 11.5191704948268274  4.6042588980203956 51.4083010717629421   T   T   T
 14.1774406090176317  6.1390118640271938 51.4083010717629421   T   T   T
 16.8357107232084360  7.6737648300339929 51.4083010717629421   T   T   T
 19.4939808373992456  9.2085177960407893 51.4083010717629421   T   T   T
 22.1522509515900516 10.7432707620475885 51.4083010717629421   T   T   T
 24.8105210657808577 12.2780237280543876 51.4083010717629421   T   T   T
 27.4687911799716602 13.8127766940611849 51.4083010717629421   T   T   T
  8.8609003806360267 15.3475296600679822 51.4083010717629421   T   T   T
 16.8357107232084395 16.8822826260747796 51.4083010717629421   T   T   T
  8.8609003806360196  0.0000000000000000 51.4083010717629421   T   T   T
 11.5191704948268239  1.5347529660067984 51.4083010717629421   T   T   T
 14.1774406090176317  3.0695059320135973 51.4083010717629421   T   T   T
 16.8357107232084324  4.6042588980203956 51.4083010717629421   T   T   T
 19.4939808373992420  6.1390118640271938 51.4083010717629421   T   T   T
 22.1522509515900516  7.6737648300339929 51.4083010717629421   T   T   T
 24.8105210657808541  9.2085177960407893 51.4083010717629421   T   T   T
 27.4687911799716531 10.7432707620475885 51.4083010717629421   T   T   T
 22.1522509515900552 16.8822826260747796 51.4083010717629421   T   T   T
 14.1774406090176335  0.0000000000000000 51.4083010717629421   T   T   T
 16.8357107232084360  1.5347529660067984 51.4083010717629421   T   T   T
 19.4939808373992420  3.0695059320135973 51.4083010717629421   T   T   T
 22.1522509515900445  4.6042588980203956 51.4083010717629421   T   T   T
  3.5443601522544093  6.1390118640271938 51.4083010717629421   T   T   T
 27.4687911799716566 16.8822826260747796 51.4083010717629421   T   T   T
 19.4939808373992420  0.0000000000000000 51.4083010717629421   T   T   T
 22.1522509515900445  1.5347529660067980 51.4083010717629421   T   T   T
  9.7469904186996246 13.8127766940611867 49.4083010717629492   T   T   T
 12.4052605328904306 15.3475296600679840 49.4083010717629492   T   T   T
 15.0635306470812367 16.8822826260747796 49.4083010717629492   T   T   T
  7.0887203045088159  9.2085177960407911 49.4083010717629492   T   T   T
  9.7469904186996228 10.7432707620475885 49.4083010717629492   T   T   T
 12.4052605328904306 12.2780237280543876 49.4083010717629492   T   T   T
 15.0635306470812331 13.8127766940611867 49.4083010717629492   T   T   T
 17.7218007612720356 15.3475296600679840 49.4083010717629492   T   T   T
 20.3800708754628488 16.8822826260747796 49.4083010717629492   T   T   T
  4.4304501903180098  4.6042588980203956 49.4083010717629492   T   T   T
  7.0887203045088150  6.1390118640271938 49.4083010717629492   T   T   T
  9.7469904186996228  7.6737648300339920 49.4083010717629492   T   T   T
 12.4052605328904306  9.2085177960407911 49.4083010717629492   T   T   T
 15.0635306470812331 10.7432707620475885 49.4083010717629492   T   T   T
 17.7218007612720356 12.2780237280543876 49.4083010717629492   T   T   T
 20.3800708754628417 13.8127766940611867 49.4083010717629492   T   T   T
 23.0383409896536548 15.3475296600679840 49.4083010717629492   T   T   T
 25.6966111038444573 16.8822826260747796 49.4083010717629492   T   T   T
  1.7721800761272037  0.0000000000000000 49.4083010717629492   T   T   T
  4.4304501903180107  1.5347529660067984 49.4083010717629492   T   T   T
  7.0887203045088159  3.0695059320135969 49.4083010717629492   T   T   T
  9.7469904186996210  4.6042588980203956 49.4083010717629492   T   T   T
 12.4052605328904288  6.1390118640271938 49.4083010717629492   T   T   T
 15.0635306470812331  7.6737648300339920 49.4083010717629492   T   T   T
 17.7218007612720427  9.2085177960407911 49.4083010717629492   T   T   T
 20.3800708754628452 10.7432707620475885 49.4083010717629492   T   T   T
 23.0383409896536548 12.2780237280543876 49.4083010717629492   T   T   T
 25.6966111038444573 13.8127766940611867 49.4083010717629492   T   T   T
 28.3548812180352598 15.3475296600679840 49.4083010717629492   T   T   T
  9.7469904186996299 16.8822826260747796 49.4083010717629492   T   T   T
  7.0887203045088150  0.0000000000000000 49.4083010717629492   T   T   T
  9.7469904186996210  1.5347529660067984 49.4083010717629492   T   T   T
 12.4052605328904253  3.0695059320135969 49.4083010717629492   T   T   T
 15.0635306470812331  4.6042588980203956 49.4083010717629492   T   T   T
 17.7218007612720356  6.1390118640271938 49.4083010717629492   T   T   T
 20.3800708754628452  7.6737648300339920 49.4083010717629492   T   T   T
 23.0383409896536548  9.2085177960407911 49.4083010717629492   T   T   T
 25.6966111038444573 10.7432707620475885 49.4083010717629492   T   T   T
  7.0887203045088185 12.2780237280543876 49.4083010717629492   T   T   T
 12.4052605328904271  0.0000000000000000 49.4083010717629492   T   T   T
 15.0635306470812331  1.5347529660067984 49.4083010717629492   T   T   T
 17.7218007612720356  3.0695059320135969 49.4083010717629492   T   T   T
 20.3800708754628381  4.6042588980203956 49.4083010717629492   T   T   T
 23.0383409896536513  6.1390118640271938 49.4083010717629492   T   T   T
  4.4304501903180107  7.6737648300339920 49.4083010717629492   T   T   T
 17.7218007612720392  0.0000000000000000 49.4083010717629492   T   T   T
 20.3800708754628452  1.5347529660067980 49.4083010717629492   T   T   T
  1.7721800761272042  3.0695059320135964 49.4083010717629492   T   T   T
  7.9748103425724208 13.8127766940611867 47.4083010717629421   T   T   T
 10.6330804567632242 15.3475296600679840 47.4083010717629421   T   T   T
 13.2913505709540303 16.8822826260747796 47.4083010717629421   T   T   T
  5.3165402283816139  9.2085177960407911 47.4083010717629421   T   T   T
  7.9748103425724182 10.7432707620475885 47.4083010717629421   T   T   T
 10.6330804567632242 12.2780237280543876 47.4083010717629421   T   T   T
 13.2913505709540303 13.8127766940611867 47.4083010717629421   T   T   T
 15.9496206851448363 15.3475296600679840 47.4083010717629421   T   T   T
 18.6078907993356424 16.8822826260747796 47.4083010717629421   T   T   T
  2.6582701141908069  4.6042588980203956 47.4083010717629421   T   T   T
  5.3165402283816121  6.1390118640271938 47.4083010717629421   T   T   T
  7.9748103425724182  7.6737648300339920 47.4083010717629421   T   T   T
 10.6330804567632224  9.2085177960407911 47.4083010717629421   T   T   T
 13.2913505709540285 10.7432707620475885 47.4083010717629421   T   T   T
 15.9496206851448381 12.2780237280543876 47.4083010717629421   T   T   T
 18.6078907993356424 13.8127766940611867 47.4083010717629421   T   T   T
 21.2661609135264449 15.3475296600679840 47.4083010717629421   T   T   T
 23.9244310277172545 16.8822826260747796 47.4083010717629421   T   T   T
  0.0000000000000000  0.0000000000000000 47.4083010717629421   T   T   T
  2.6582701141908061  1.5347529660067984 47.4083010717629421   T   T   T
  5.3165402283816121  3.0695059320135969 47.4083010717629421   T   T   T
  7.9748103425724182  4.6042588980203956 47.4083010717629421   T   T   T
 10.6330804567632242  6.1390118640271938 47.4083010717629421   T   T   T
 13.2913505709540267  7.6737648300339920 47.4083010717629421   T   T   T
 15.9496206851448363  9.2085177960407911 47.4083010717629421   T   T   T
 18.6078907993356424 10.7432707620475885 47.4083010717629421   T   T   T
 21.2661609135264484 12.2780237280543876 47.4083010717629421   T   T   T
 23.9244310277172545 13.8127766940611867 47.4083010717629421   T   T   T
 26.5827011419080534 15.3475296600679840 47.4083010717629421   T   T   T
 29.2409712560988737 16.8822826260747796 47.4083010717629421   T   T   T
  5.3165402283816112  0.0000000000000000 47.4083010717629421   T   T   T
  7.9748103425724173  1.5347529660067984 47.4083010717629421   T   T   T
 10.6330804567632207  3.0695059320135969 47.4083010717629421   T   T   T
 13.2913505709540303  4.6042588980203956 47.4083010717629421   T   T   T
 15.9496206851448346  6.1390118640271938 47.4083010717629421   T   T   T
 18.6078907993356388  7.6737648300339920 47.4083010717629421   T   T   T
 21.2661609135264484  9.2085177960407911 47.4083010717629421   T   T   T
 23.9244310277172474 10.7432707620475885 47.4083010717629421   T   T   T
 26.5827011419080570 12.2780237280543876 47.4083010717629421   T   T   T
 10.6330804567632224  0.0000000000000000 47.4083010717629421   T   T   T
 13.2913505709540338  1.5347529660067984 47.4083010717629421   T   T   T
 15.9496206851448346  3.0695059320135969 47.4083010717629421   T   T   T
 18.6078907993356388  4.6042588980203956 47.4083010717629421   T   T   T
 21.2661609135264413  6.1390118640271938 47.4083010717629421   T   T   T
 23.9244310277172545  7.6737648300339920 47.4083010717629421   T   T   T
 15.9496206851448328  0.0000000000000000 47.4083010717629421   T   T   T
 18.6078907993356388  1.5347529660067980 47.4083010717629421   T   T   T
 21.2661609135264413  3.0695059320135964 47.4083010717629421   T   T   T
  8.8609003806360231 12.2780237280543876 31.4083010717629385   T   T   T
 11.5191704948268274 13.8127766940611849 31.4083010717629385   T   T   T
 14.1774406090176335 15.3475296600679822 31.4083010717629385   T   T   T
  6.2026302664452144  7.6737648300339929 31.4083010717629385   T   T   T
  8.8609003806360196  9.2085177960407893 31.4083010717629385   T   T   T
 11.5191704948268274 10.7432707620475885 31.4083010717629385   T   T   T
 14.1774406090176335 12.2780237280543876 31.4083010717629385   T   T   T
 16.8357107232084360 13.8127766940611849 31.4083010717629385   T   T   T
 19.4939808373992420 15.3475296600679822 31.4083010717629385   T   T   T
  3.5443601522544075  3.0695059320135973 31.4083010717629385   T   T   T
  6.2026302664452153  4.6042588980203956 31.4083010717629385   T   T   T
  8.8609003806360178  6.1390118640271938 31.4083010717629385   T   T   T
 11.5191704948268239  7.6737648300339929 31.4083010717629385   T   T   T
 14.1774406090176335  9.2085177960407893 31.4083010717629385   T   T   T
 16.8357107232084360 10.7432707620475885 31.4083010717629385   T   T   T
 19.4939808373992420 12.2780237280543876 31.4083010717629385   T   T   T
 22.1522509515900481 13.8127766940611849 31.4083010717629421   T   T   T
 24.8105210657808612 15.3475296600679822 31.4083010717629421   T   T   T
 11.5191704948268292 16.8822826260747796 31.4083010717629385   T   T   T
  3.5443601522544075  0.0000000000000000 31.4083010717629385   T   T   T
  6.2026302664452135  1.5347529660067984 31.4083010717629385   T   T   T
  8.8609003806360214  3.0695059320135973 31.4083010717629385   T   T   T
 11.5191704948268274  4.6042588980203956 31.4083010717629385   T   T   T
 14.1774406090176317  6.1390118640271938 31.4083010717629385   T   T   T
 16.8357107232084360  7.6737648300339929 31.4083010717629385   T   T   T
 19.4939808373992456  9.2085177960407893 31.4083010717629385   T   T   T
 22.1522509515900516 10.7432707620475885 31.4083010717629385   T   T   T
 24.8105210657808577 12.2780237280543876 31.4083010717629421   T   T   T
 27.4687911799716602 13.8127766940611849 31.4083010717629421   T   T   T
  8.8609003806360267 15.3475296600679822 31.4083010717629385   T   T   T
 16.8357107232084395 16.8822826260747796 31.4083010717629385   T   T   T
  8.8609003806360196  0.0000000000000000 31.4083010717629385   T   T   T
 11.5191704948268239  1.5347529660067984 31.4083010717629385   T   T   T
 14.1774406090176317  3.0695059320135973 31.4083010717629385   T   T   T
 16.8357107232084324  4.6042588980203956 31.4083010717629385   T   T   T
 19.4939808373992420  6.1390118640271938 31.4083010717629385   T   T   T
 22.1522509515900516  7.6737648300339929 31.4083010717629385   T   T   T
 24.8105210657808541  9.2085177960407893 31.4083010717629421   T   T   T
 27.4687911799716531 10.7432707620475885 31.4083010717629421   T   T   T
 22.1522509515900552 16.8822826260747796 31.4083010717629421   T   T   T
 14.1774406090176335  0.0000000000000000 31.4083010717629385   T   T   T
 16.8357107232084360  1.5347529660067984 31.4083010717629385   T   T   T
 19.4939808373992420  3.0695059320135973 31.4083010717629385   T   T   T
 22.1522509515900445  4.6042588980203956 31.4083010717629385   T   T   T
  3.5443601522544093  6.1390118640271938 31.4083010717629385   T   T   T
 27.4687911799716566 16.8822826260747796 31.4083010717629421   T   T   T
 19.4939808373992420  0.0000000000000000 31.4083010717629385   T   T   T
 22.1522509515900445  1.5347529660067980 31.4083010717629385   T   T   T
  9.7469904186996246 13.8127766940611867 29.4083010717629456   T   T   T
 12.4052605328904306 15.3475296600679840 29.4083010717629456   T   T   T
 15.0635306470812367 16.8822826260747796 29.4083010717629456   T   T   T
  7.0887203045088159  9.2085177960407911 29.4083010717629456   T   T   T
  9.7469904186996228 10.7432707620475885 29.4083010717629456   T   T   T
 12.4052605328904306 12.2780237280543876 29.4083010717629456   T   T   T
 15.0635306470812331 13.8127766940611867 29.4083010717629456   T   T   T
 17.7218007612720356 15.3475296600679840 29.4083010717629456   T   T   T
 20.3800708754628488 16.8822826260747796 29.4083010717629492   T   T   T
  4.4304501903180098  4.6042588980203956 29.4083010717629456   T   T   T
  7.0887203045088150  6.1390118640271938 29.4083010717629456   T   T   T
  9.7469904186996228  7.6737648300339920 29.4083010717629456   T   T   T
 12.4052605328904306  9.2085177960407911 29.4083010717629456   T   T   T
 15.0635306470812331 10.7432707620475885 29.4083010717629456   T   T   T
 17.7218007612720356 12.2780237280543876 29.4083010717629456   T   T   T
 20.3800708754628417 13.8127766940611867 29.4083010717629456   T   T   T
 23.0383409896536548 15.3475296600679840 29.4083010717629492   T   T   T
 25.6966111038444573 16.8822826260747796 29.4083010717629492   T   T   T
  1.7721800761272037  0.0000000000000000 29.4083010717629456   T   T   T
  4.4304501903180107  1.5347529660067984 29.4083010717629456   T   T   T
  7.0887203045088159  3.0695059320135969 29.4083010717629456   T   T   T
  9.7469904186996210  4.6042588980203956 29.4083010717629456   T   T   T
 12.4052605328904288  6.1390118640271938 29.4083010717629456   T   T   T
 15.0635306470812331  7.6737648300339920 29.4083010717629456   T   T   T
 17.7218007612720427  9.2085177960407911 29.4083010717629456   T   T   T
 20.3800708754628452 10.7432707620475885 29.4083010717629456   T   T   T
 23.0383409896536548 12.2780237280543876 29.4083010717629492   T   T   T
 25.6966111038444573 13.8127766940611867 29.4083010717629492   T   T   T
 28.3548812180352598 15.3475296600679840 29.4083010717629492   T   T   T
  9.7469904186996299 16.8822826260747796 29.4083010717629456   T   T   T
  7.0887203045088150  0.0000000000000000 29.4083010717629456   T   T   T
  9.7469904186996210  1.5347529660067984 29.4083010717629456   T   T   T
 12.4052605328904253  3.0695059320135969 29.4083010717629456   T   T   T
 15.0635306470812331  4.6042588980203956 29.4083010717629456   T   T   T
 17.7218007612720356  6.1390118640271938 29.4083010717629456   T   T   T
 20.3800708754628452  7.6737648300339920 29.4083010717629456   T   T   T
 23.0383409896536548  9.2085177960407911 29.4083010717629456   T   T   T
 25.6966111038444573 10.7432707620475885 29.4083010717629492   T   T   T
  7.0887203045088185 12.2780237280543876 29.4083010717629456   T   T   T
 12.4052605328904271  0.0000000000000000 29.4083010717629456   T   T   T
 15.0635306470812331  1.5347529660067984 29.4083010717629456   T   T   T
 17.7218007612720356  3.0695059320135969 29.4083010717629456   T   T   T
 20.3800708754628381  4.6042588980203956 29.4083010717629456   T   T   T
 23.0383409896536513  6.1390118640271938 29.4083010717629456   T   T   T
  4.4304501903180107  7.6737648300339920 29.4083010717629456   T   T   T
 17.7218007612720392  0.0000000000000000 29.4083010717629456   T   T   T
 20.3800708754628452  1.5347529660067980 29.4083010717629456   T   T   T
  1.7721800761272042  3.0695059320135964 29.4083010717629456   T   T   T
  7.9748103425724208 13.8127766940611867 27.4083010717629421   T   T   T
 10.6330804567632242 15.3475296600679840 27.4083010717629421   T   T   T
 13.2913505709540303 16.8822826260747796 27.4083010717629421   T   T   T
  5.3165402283816139  9.2085177960407911 27.4083010717629421   T   T   T
  7.9748103425724182 10.7432707620475885 27.4083010717629421   T   T   T
 10.6330804567632242 12.2780237280543876 27.4083010717629421   T   T   T
 13.2913505709540303 13.8127766940611867 27.4083010717629421   T   T   T
 15.9496206851448363 15.3475296600679840 27.4083010717629421   T   T   T
 18.6078907993356424 16.8822826260747796 27.4083010717629421   T   T   T
  2.6582701141908069  4.6042588980203956 27.4083010717629421   T   T   T
  5.3165402283816121  6.1390118640271938 27.4083010717629421   T   T   T
  7.9748103425724182  7.6737648300339920 27.4083010717629421   T   T   T
 10.6330804567632224  9.2085177960407911 27.4083010717629421   T   T   T
 13.2913505709540285 10.7432707620475885 27.4083010717629421   T   T   T
 15.9496206851448381 12.2780237280543876 27.4083010717629421   T   T   T
 18.6078907993356424 13.8127766940611867 27.4083010717629421   T   T   T
 21.2661609135264449 15.3475296600679840 27.4083010717629456   T   T   T
 23.9244310277172545 16.8822826260747796 27.4083010717629456   T   T   T
  0.0000000000000000  0.0000000000000000 27.4083010717629421   T   T   T
  2.6582701141908061  1.5347529660067984 27.4083010717629421   T   T   T
  5.3165402283816121  3.0695059320135969 27.4083010717629421   T   T   T
  7.9748103425724182  4.6042588980203956 27.4083010717629421   T   T   T
 10.6330804567632242  6.1390118640271938 27.4083010717629421   T   T   T
 13.2913505709540267  7.6737648300339920 27.4083010717629421   T   T   T
 15.9496206851448363  9.2085177960407911 27.4083010717629421   T   T   T
 18.6078907993356424 10.7432707620475885 27.4083010717629421   T   T   T
 21.2661609135264484 12.2780237280543876 27.4083010717629421   T   T   T
 23.9244310277172545 13.8127766940611867 27.4083010717629456   T   T   T
 26.5827011419080534 15.3475296600679840 27.4083010717629456   T   T   T
 29.2409712560988737 16.8822826260747796 27.4083010717629456   T   T   T
  5.3165402283816112  0.0000000000000000 27.4083010717629421   T   T   T
  7.9748103425724173  1.5347529660067984 27.4083010717629421   T   T   T
 10.6330804567632207  3.0695059320135969 27.4083010717629421   T   T   T
 13.2913505709540303  4.6042588980203956 27.4083010717629421   T   T   T
 15.9496206851448346  6.1390118640271938 27.4083010717629421   T   T   T
 18.6078907993356388  7.6737648300339920 27.4083010717629421   T   T   T
 21.2661609135264484  9.2085177960407911 27.4083010717629421   T   T   T
 23.9244310277172474 10.7432707620475885 27.4083010717629456   T   T   T
 26.5827011419080570 12.2780237280543876 27.4083010717629456   T   T   T
 10.6330804567632224  0.0000000000000000 27.4083010717629421   T   T   T
 13.2913505709540338  1.5347529660067984 27.4083010717629421   T   T   T
 15.9496206851448346  3.0695059320135969 27.4083010717629421   T   T   T
 18.6078907993356388  4.6042588980203956 27.4083010717629421   T   T   T
 21.2661609135264413  6.1390118640271938 27.4083010717629421   T   T   T
 23.9244310277172545  7.6737648300339920 27.4083010717629421   T   T   T
 15.9496206851448328  0.0000000000000000 27.4083010717629421   T   T   T
 18.6078907993356388  1.5347529660067980 27.4083010717629421   T   T   T
 21.2661609135264413  3.0695059320135964 27.4083010717629421   T   T   T
 21.9944540954965291  5.1298592288446452  4.1114822291204804   F   F   F
 23.0140645502546519  7.4004526580053867  4.1114822291204796   F   F   F
 24.0336750050127748  9.6710460871661343  4.1114822291204804   F   F   F
 25.0532854597708834 11.9416395163268714  4.1114822291204804   F   F   F
 26.0728959145290062 14.2122329454876173  4.1114822291204804   F   F   F
 27.0925063692871220 16.4828263746483650  4.1114822291204831   F   F   F
 28.1121168240452448 18.7534198038091091  4.1114822291204893   F   F   F
 29.1317272788033605 21.0240132329698461  4.1114822291204831   F   F   F
 19.5182572767982450  4.8775710700490063  4.1114822291204804   F   F   F
 20.5378677315563678  7.1481644992097504  4.1114822291204804   F   F   F
 21.5574781863144835  9.4187579283704927  4.1114822291204804   F   F   F
 22.5770886410726028 11.6893513575312369  4.1114822291204822   F   F   F
 23.5966990958307221 13.9599447866919810  4.1114822291204787   F   F   F
 24.6163095505888379 16.2305382158527252  4.1114822291204796   F   F   F
 25.6359200053469536 18.5011316450134657  4.1114822291204822   F   F   F
 26.6555304601050800 20.7717250741742134  4.1114822291204813   F   F   F
 17.0420604580999608  4.6252829112533682  4.1114822291204778   F   F   F
 18.0616709128580766  6.8958763404141115  4.1114822291204804   F   F   F
 19.0812813676161994  9.1664697695748565  4.1114822291204804   F   F   F
 20.1008918223743152 11.4370631987355953  4.1114822291204804   F   F   F
 21.1205022771324380 13.7076566278963483  4.1114822291204858   F   F   F
 22.1401127318905537 15.9782500570570853  4.1114822291204796   F   F   F
 23.1597231866486695 18.2488434862178259  4.1114822291204813   F   F   F
 24.1793336414067888 20.5194369153785701  4.1114822291204742   F   F   F
 14.5658636394016803  4.3729947524577293  4.1114822291204787   F   F   F
 15.5854740941597942  6.6435881816184734  4.1114822291204787   F   F   F
 16.6050845489179153  8.9141816107792167  4.1114822291204769   F   F   F
 17.6246950036760346 11.1847750399399590  4.1114822291204804   F   F   F
 18.6443054584341468 13.4553684691007032  4.1114822291204804   F   F   F
 19.6639159131922696 15.7259618982614473  4.1114822291204787   F   F   F
 20.6835263679503853 17.9965553274221897  4.1114822291204804   F   F   F
 21.7031368227085046 20.2671487565829302  4.1114822291204796   F   F   F
 12.0896668207033926  4.1207065936620904  4.1114822291204796   F   F   F
 13.1092772754615119  6.3913000228228336  4.1114822291204787   F   F   F
 14.1288877302196312  8.6618934519835786  4.1114822291204813   F   F   F
 15.1484981849777469 10.9324868811443192  4.1114822291204787   F   F   F
 16.1681086397358698 13.2030803103050651  4.1114822291204804   F   F   F
 17.1877190944939819 15.4736737394658057  4.1114822291204804   F   F   F
 18.2073295492521048 17.7442671686265534  4.1114822291204804   F   F   F
 19.2269400040102241 20.0148605977873011  4.1114822291204849   F   F   F
  9.6134700020051067  3.8684184348664528  4.1114822291204796   F   F   F
 10.6330804567632260  6.1390118640271956  4.1114822291204796   F   F   F
 11.6526909115213435  8.4096052931879388  4.1114822291204787   F   F   F
 12.6723013662794592 10.6801987223486829  4.1114822291204787   F   F   F
 13.6919118210375785 12.9507921515094271  4.1114822291204787   F   F   F
 14.7115222757956978 15.2213855806701730  4.1114822291204796   F   F   F
 15.7311327305538136 17.4919790098309136  4.1114822291204804   F   F   F
 16.7507431853119328 19.7625724389916506  4.1114822291204813   F   F   F
  7.1372731833068235  3.6161302760708138  4.1114822291204787   F   F   F
  8.1568836380649401  5.8867237052315575  4.1114822291204796   F   F   F
  9.1764940928230576  8.1573171343923008  4.1114822291204796   F   F   F
 10.1961045475811751 10.4279105635530414  4.1114822291204787   F   F   F
 11.2157150023392944 12.6985039927137873  4.1114822291204778   F   F   F
 12.2353254570974119 14.9690974218745314  4.1114822291204787   F   F   F
 13.2549359118555330 17.2396908510352773  4.1114822291204787   F   F   F
 14.2745463666136434 19.5102842801960144  4.1114822291204796   F   F   F
  4.6610763646085367  3.3638421172751758  4.1114822291204787   F   F   F
  5.6806868193666551  5.6344355464359186  4.1114822291204796   F   F   F
  6.7002972741247735  7.9050289755966627  4.1114822291204796   F   F   F
  7.7199077288828910 10.1756224047574069  4.1114822291204796   F   F   F
  8.7395181836410085 12.4462158339181475  4.1114822291204769   F   F   F
  9.7591286383991260 14.7168092630788934  4.1114822291204769   F   F   F
 10.7787390931572435 16.9874026922396340  4.1114822291204796   F   F   F
 11.7983495479153664 19.2579961214003816  4.1114822291204796   F   F   F
  2.1848795459102526  3.1115539584795378  4.1114822291204787   F   F   F
  3.2044900006683705  5.3821473876402806  4.1114822291204787   F   F   F
  4.2241004554264885  7.6527408168010247  4.1114822291204787   F   F   F
  5.2437109101846042  9.9233342459617653  4.1114822291204796   F   F   F
  6.2633213649427226 12.1939276751225112  4.1114822291204787   F   F   F
  7.2829318197008437 14.4645211042832553  4.1114822291204796   F   F   F
  8.3025422744589576 16.7351145334439941  4.1114822291204769   F   F   F
  9.3221527292170769 19.0057079626047383  4.1114822291204796   F   F   F
 -0.2913172727880327  2.8592657996838988  4.1114822291204778   F   F   F
 21.8487954591025151  6.5594921286865944  6.1437551766679634   F   F   F
 22.8684059138606344  8.8300855578473385  6.1437551766679661   F   F   F
 23.8880163686187572 11.1006789870080844  6.1437551766679652   F   F   F
 24.9076268233768658 13.3712724161688215  6.1437551766679626   F   F   F
 25.9272372781349887 15.6418658453295709  6.1437551766679634   F   F   F
 26.9468477328931115 17.9124592744903168  6.1437551766679688   F   F   F
 27.9664581876512202 20.1830527036510574  6.1437551766679706   F   F   F
 28.9860686424093430 22.4536461328118016  6.1437551766679706   F   F   F
 19.3725986404042274  6.3072039698909572  6.1437551766679634   F   F   F
 20.3922090951623503  8.5777973990517005  6.1437551766679661   F   F   F
 21.4118195499204731 10.8483908282124446  6.1437551766679652   F   F   F
 22.4314300046785853 13.1189842573731852  6.1437551766679634   F   F   F
 23.4510404594367046 15.3895776865339311  6.1437551766679626   F   F   F
 24.4706509141948203 17.6601711156946735  6.1437551766679670   F   F   F
 25.4902613689529360 19.9307645448554211  6.1437551766679688   F   F   F
 26.5098718237110589 22.2013579740161617  6.1437551766679679   F   F   F
 16.8964018217059468  6.0549158110953183  6.1437551766679626   F   F   F
 17.9160122764640661  8.3255092402560624  6.1437551766679634   F   F   F
 18.9356227312221819 10.5961026694168066  6.1437551766679634   F   F   F
 19.9552331859803047 12.8666960985775489  6.1437551766679634   F   F   F
 20.9748436407384169 15.1372895277382948  6.1437551766679697   F   F   F
 21.9944540954965362 17.4078829568990372  6.1437551766679652   F   F   F
 23.0140645502546448 19.6784763860597742  6.1437551766679626   F   F   F
 24.0336750050127748 21.9490698152205219  6.1437551766679634   F   F   F
 14.4202050030076645  5.8026276522996802  6.1437551766679626   F   F   F
 15.4398154577657785  8.0732210814604226  6.1437551766679626   F   F   F
 16.4594259125238978 10.3438145106211650  6.1437551766679608   F   F   F
 17.4790363672820135 12.6144079397819073  6.1437551766679634   F   F   F
 18.4986468220401363 14.8850013689426550  6.1437551766679661   F   F   F
 19.5182572767982450 17.1555947981033938  6.1437551766679634   F   F   F
 20.5378677315563678 19.4261882272641380  6.1437551766679652   F   F   F
 21.5574781863144906 21.6967816564248821  6.1437551766679661   F   F   F
 11.9440081843093786  5.5503394935040404  6.1437551766679626   F   F   F
 12.9636186390674979  7.8209329226647846  6.1437551766679626   F   F   F
 13.9832290938256101 10.0915263518255287  6.1437551766679617   F   F   F
 15.0028395485837365 12.3621197809862728  6.1437551766679634   F   F   F
 16.0224500033418522 14.6327132101470188  6.1437551766679634   F   F   F
 17.0420604580999715 16.9033066393077611  6.1437551766679634   F   F   F
 18.0616709128580837 19.1739000684685053  6.1437551766679634   F   F   F
 19.0812813676162101 21.4444934976292494  6.1437551766679670   F   F   F
  9.4678113656110892  5.2980513347084024  6.1437551766679626   F   F   F
 10.4874218203692102  7.5686447638691456  6.1437551766679626   F   F   F
 11.5070322751273260  9.8392381930298889  6.1437551766679617   F   F   F
 12.5266427298854452 12.1098316221906330  6.1437551766679626   F   F   F
 13.5462531846435610 14.3804250513513718  6.1437551766679626   F   F   F
 14.5658636394016821 16.6510184805121213  6.1437551766679626   F   F   F
 15.5854740941597996 18.9216119096728654  6.1437551766679661   F   F   F
 16.6050845489179153 21.1922053388336060  6.1437551766679652   F   F   F
  6.9916145469128086  5.0457631759127652  6.1437551766679626   F   F   F
  8.0112250016709243  7.3163566050735067  6.1437551766679617   F   F   F
  9.0308354564290418  9.5869500342342491  6.1437551766679643   F   F   F
 10.0504459111871594 11.8575434633949932  6.1437551766679617   F   F   F
 11.0700563659452786 14.1281368925557373  6.1437551766679617   F   F   F
 12.0896668207033979 16.3987303217164815  6.1437551766679643   F   F   F
 13.1092772754615101 18.6693237508772221  6.1437551766679634   F   F   F
 14.1288877302196330 20.9399171800379662  6.1437551766679652   F   F   F
  4.5154177282145209  4.7934750171171263  6.1437551766679626   F   F   F
  5.5350281829726375  7.0640684462778678  6.1437551766679626   F   F   F
  6.5546386377307568  9.3346618754386128  6.1437551766679626   F   F   F
  7.5742490924888743 11.6052553045993552  6.1437551766679626   F   F   F
  8.5938595472469927 13.8758487337600993  6.1437551766679617   F   F   F
  9.6134700020051103 16.1464421629208417  6.1437551766679617   F   F   F
 10.6330804567632260 18.4170355920815823  6.1437551766679626   F   F   F
 11.6526909115213453 20.6876290212423299  6.1437551766679634   F   F   F
  2.0392209095162355  4.5411868583214865  6.1437551766679608   F   F   F
  3.0588313642743534  6.8117802874822297  6.1437551766679608   F   F   F
  4.0784418190324701  9.0823737166429712  6.1437551766679617   F   F   F
  5.0980522737905876 11.3529671458037154  6.1437551766679626   F   F   F
  6.1176627285487069 13.6235605749644613  6.1437551766679643   F   F   F
  7.1372731833068253 15.8941540041252036  6.1437551766679617   F   F   F
  8.1568836380649419 18.1647474332859460  6.1437551766679617   F   F   F
  9.1764940928230594 20.4353408624466866  6.1437551766679626   F   F   F
 -0.4369759091820495  4.2888986995258485  6.1437551766679608   F   F   F
 21.7031368227084975  7.9891250285285453  8.1760281242154473   T   T   T
 22.7227472774666204 10.2597184576892850  8.1760281242154473   T   T   T
 23.7423577322247432 12.5303118868500327  8.1760281242154456   T   T   T
 24.7619681869828518 14.8009053160107698  8.1760281242154420   T   T   T
 25.7815786417409711 17.0714987451715174  8.1760281242154438   T   T   T
 26.8011890964990869 19.3420921743322616  8.1760281242154473   T   T   T
 27.8207995512572097 21.6126856034930093  8.1760281242154544   T   T   T
 28.8404100060153255 23.8832790326537427  8.1760281242154473   T   T   T
 19.2269400040102134  7.7368368697329055  8.1760281242154473   T   T   T
 20.2465504587683363 10.0074302988936505  8.1760281242154456   T   T   T
 21.2661609135264520 12.2780237280543911  8.1760281242154456   T   T   T
 22.2857713682845713 14.5486171572151335  8.1760281242154438   T   T   T
 23.3053818230426870 16.8192105863758776  8.1760281242154438   T   T   T
 24.3249922778008063 19.0898040155366253  8.1760281242154473   T   T   T
 25.3446027325589185 21.3603974446973659  8.1760281242154438   T   T   T
 26.3642131873170484 23.6309908738581136  8.1760281242154527   T   T   T
 16.7507431853119257  7.4845487109372675  8.1760281242154456   T   T   T
 17.7703536400700486  9.7551421400980107  8.1760281242154473   T   T   T
 18.7899640948281643 12.0257355692587531  8.1760281242154456   T   T   T
 19.8095745495862801 14.2963289984194972  8.1760281242154438   T   T   T
 20.8291850043444029 16.5669224275802414  8.1760281242154473   T   T   T
 21.8487954591025186 18.8375158567409819  8.1760281242154456   T   T   T
 22.8684059138606273 21.1081092859017225  8.1760281242154438   T   T   T
 23.8880163686187572 23.3787027150624738  8.1760281242154438   T   T   T
 14.2745463666136470  7.2322605521416277  8.1760281242154438   T   T   T
 15.2941568213717662  9.5028539813023727  8.1760281242154456   T   T   T
 16.3137672761298802 11.7734474104631150  8.1760281242154456   T   T   T
 17.3333777308880030 14.0440408396238592  8.1760281242154473   T   T   T
 18.3529881856461152 16.3146342687846015  8.1760281242154473   T   T   T
 19.3725986404042345 18.5852276979453457  8.1760281242154473   T   T   T
 20.3922090951623503 20.8558211271060827  8.1760281242154438   T   T   T
 21.4118195499204731 23.1264145562668304  8.1760281242154456   T   T   T
 11.7983495479153593  6.9799723933459905  8.1760281242154438   T   T   T
 12.8179600026734768  9.2505658225067329  8.1760281242154438   T   T   T
 13.8375704574315996 11.5211592516674788  8.1760281242154473   T   T   T
 14.8571809121897136 13.7917526808282176  8.1760281242154473   T   T   T
 15.8767913669478329 16.0623461099889653  8.1760281242154438   T   T   T
 16.8964018217059468 18.3329395391497023  8.1760281242154438   T   T   T
 17.9160122764640661 20.6035329683104464  8.1760281242154438   T   T   T
 18.9356227312221890 22.8741263974711906  8.1760281242154473   T   T   T
  9.3221527292170734  6.7276842345503516  8.1760281242154438   T   T   T
 10.3417631839751927  8.9982776637110948  8.1760281242154438   T   T   T
 11.3613736387333102 11.2688710928718372  8.1760281242154456   T   T   T
 12.3809840934914259 13.5394645220325813  8.1760281242154438   T   T   T
 13.4005945482495470 15.8100579511933255  8.1760281242154456   T   T   T
 14.4202050030076663 18.0806513803540696  8.1760281242154438   T   T   T
 15.4398154577657820 20.3512448095148137  8.1760281242154473   T   T   T
 16.4594259125238978 22.6218382386755543  8.1760281242154456   T   T   T
  6.8459559105187910  6.4753960757547135  8.1760281242154438   T   T   T
  7.8655663652769086  8.7459895049154568  8.1760281242154438   T   T   T
  8.8851768200350243 11.0165829340762009  8.1760281242154438   T   T   T
  9.9047872747931436 13.2871763632369433  8.1760281242154438   T   T   T
 10.9243977295512611 15.5577697923976856  8.1760281242154438   T   T   T
 11.9440081843093786 17.8283632215584298  8.1760281242154473   T   T   T
 12.9636186390675014 20.0989566507191775  8.1760281242154473   T   T   T
 13.9832290938256136 22.3695500798799145  8.1760281242154438   T   T   T
  4.3697590918205051  6.2231079169590755  8.1760281242154456   T   T   T
  5.3893695465786218  8.4937013461198170  8.1760281242154438   T   T   T
  6.4089800013367411 10.7642947752805611  8.1760281242154456   T   T   T
  7.4285904560948568 13.0348882044413052  8.1760281242154438   T   T   T
  8.4482009108529770 15.3054816336020494  8.1760281242154438   T   T   T
  9.4678113656110927 17.5760750627627900  8.1760281242154456   T   T   T
 10.4874218203692084 19.8466684919235306  8.1760281242154456   T   T   T
 11.5070322751273313 22.1172619210842782  8.1760281242154473   T   T   T
  1.8935622731222206  5.9708197581634357  8.1760281242154420   T   T   T
  2.9131727278803385  8.2414131873241789  8.1760281242154420   T   T   T
  3.9327831826384552 10.5120066164849231  8.1760281242154438   T   T   T
  4.9523936373965718 12.7826000456456654  8.1760281242154420   T   T   T
  5.9720040921546893 15.0531934748064096  8.1760281242154438   T   T   T
  6.9916145469128095 17.3237869039671537  8.1760281242154438   T   T   T
  8.0112250016709261 19.5943803331278943  8.1760281242154456   T   T   T
  9.0308354564290418 21.8649737622886384  8.1760281242154473   T   T   T
 -0.5826345455760653  5.7185315993677976  8.1760281242154420   T   T   T
 21.5574781863144800  9.4187579283704927 10.2083010717629339   T   T   T
 22.5770886410726028 11.6893513575312369 10.2083010717629268   T   T   T
 23.5966990958307221 13.9599447866919810 10.2083010717629303   T   T   T
 24.6163095505888379 16.2305382158527252 10.2083010717629321   T   T   T
 25.6359200053469571 18.5011316450134693 10.2083010717629232   T   T   T
 26.6555304601050693 20.7717250741742134 10.2083010717629339   T   T   T
 27.6751409148631922 23.0423185033349540 10.2083010717629339   T   T   T
 28.6947513696213150 25.3129119324957017 10.2083010717629339   T   T   T
 19.0812813676161959  9.1664697695748583 10.2083010717629339   T   T   T
 20.1008918223743152 11.4370631987355971 10.2083010717629303   T   T   T
 21.1205022771324344 13.7076566278963394 10.2083010717629286   T   T   T
 22.1401127318905537 15.9782500570570853 10.2083010717629339   T   T   T
 23.1597231866486695 18.2488434862178295 10.2083010717629339   T   T   T
 24.1793336414067923 20.5194369153785772 10.2083010717629339   T   T   T
 25.1989440961648974 22.7900303445393142 10.2083010717629268   T   T   T
 26.2185545509230273 25.0606237737000583 10.2083010717629303   T   T   T
 16.6050845489179117  8.9141816107792167 10.2083010717629303   T   T   T
 17.6246950036760381 11.1847750399399626 10.2083010717629357   T   T   T
 18.6443054584341468 13.4553684691007032 10.2083010717629303   T   T   T
 19.6639159131922696 15.7259618982614473 10.2083010717629303   T   T   T
 20.6835263679503818 17.9965553274221897 10.2083010717629339   T   T   T
 21.7031368227085011 20.2671487565829338 10.2083010717629339   T   T   T
 22.7227472774666168 22.5377421857436779 10.2083010717629303   T   T   T
 23.7423577322247397 24.8083356149044185 10.2083010717629268   T   T   T
 14.1288877302196347  8.6618934519835822 10.2083010717629339   T   T   T
 15.1484981849777451 10.9324868811443245 10.2083010717629339   T   T   T
 16.1681086397358698 13.2030803103050669 10.2083010717629339   T   T   T
 17.1877190944939819 15.4736737394658075 10.2083010717629303   T   T   T
 18.2073295492520977 17.7442671686265463 10.2083010717629303   T   T   T
 19.2269400040102170 20.0148605977872940 10.2083010717629321   T   T   T
 20.2465504587683398 22.2854540269480417 10.2083010717629357   T   T   T
 21.2661609135264555 24.5560474561087823 10.2083010717629303   T   T   T
 11.6526909115213435  8.4096052931879388 10.2083010717629286   T   T   T
 12.6723013662794646 10.6801987223486847 10.2083010717629286   T   T   T
 13.6919118210375803 12.9507921515094289 10.2083010717629321   T   T   T
 14.7115222757956978 15.2213855806701712 10.2083010717629321   T   T   T
 15.7311327305538171 17.4919790098309136 10.2083010717629303   T   T   T
 16.7507431853119328 19.7625724389916506 10.2083010717629286   T   T   T
 17.7703536400700521 22.0331658681524019 10.2083010717629339   T   T   T
 18.7899640948281714 24.3037592973131424 10.2083010717629321   T   T   T
  9.1764940928230558  8.1573171343923025 10.2083010717629286   T   T   T
 10.1961045475811769 10.4279105635530431 10.2083010717629268   T   T   T
 11.2157150023392944 12.6985039927137873 10.2083010717629286   T   T   T
 12.2353254570974102 14.9690974218745332 10.2083010717629339   T   T   T
 13.2549359118555330 17.2396908510352773 10.2083010717629303   T   T   T
 14.2745463666136452 19.5102842801960179 10.2083010717629286   T   T   T
 15.2941568213717662 21.7808777093567620 10.2083010717629303   T   T   T
 16.3137672761298802 24.0514711385175062 10.2083010717629339   T   T   T
  6.7002972741247762  7.9050289755966654 10.2083010717629321   T   T   T
  7.7199077288828910 10.1756224047574069 10.2083010717629250   T   T   T
  8.7395181836410085 12.4462158339181475 10.2083010717629303   T   T   T
  9.7591286383991260 14.7168092630788916 10.2083010717629286   T   T   T
 10.7787390931572453 16.9874026922396375 10.2083010717629303   T   T   T
 11.7983495479153646 19.2579961214003816 10.2083010717629339   T   T   T
 12.8179600026734803 21.5285895505611258 10.2083010717629321   T   T   T
 13.8375704574316032 23.7991829797218699 10.2083010717629303   T   T   T
  4.2241004554264867  7.6527408168010229 10.2083010717629286   T   T   T
  5.2437109101846069  9.9233342459617688 10.2083010717629286   T   T   T
  6.2633213649427244 12.1939276751225112 10.2083010717629250   T   T   T
  7.2829318197008419 14.4645211042832535 10.2083010717629303   T   T   T
  8.3025422744589576 16.7351145334439977 10.2083010717629286   T   T   T
  9.3221527292170752 19.0057079626047383 10.2083010717629286   T   T   T
 10.3417631839751962 21.2763013917654860 10.2083010717629339   T   T   T
 11.3613736387333120 23.5468948209262265 10.2083010717629286   T   T   T
  1.7479036367282026  7.4004526580053875 10.2083010717629303   T   T   T
  2.7675140914863197  9.6710460871661290 10.2083010717629286   T   T   T
  3.7871245462444376 11.9416395163268714 10.2083010717629303   T   T   T
  4.8067350010025542 14.2122329454876137 10.2083010717629286   T   T   T
  5.8263454557606735 16.4828263746483614 10.2083010717629303   T   T   T
  6.8459559105187928 18.7534198038091056 10.2083010717629303   T   T   T
  7.8655663652769050 21.0240132329698426 10.2083010717629339   T   T   T
  8.8851768200350278 23.2946066621305867 10.2083010717629321   T   T   T
 -0.7282931819700833  7.1481644992097468 10.2083010717629286   T   T   T
  7.9748103425724208 13.8127766940611867 50.4083010717629350   T   T   T
 10.6330804567632242 15.3475296600679840 50.4083010717629350   T   T   T
 13.2913505709540303 16.8822826260747796 50.4083010717629350   T   T   T
  5.3165402283816139  9.2085177960407911 50.4083010717629350   T   T   T
  7.9748103425724182 10.7432707620475885 50.4083010717629350   T   T   T
 10.6330804567632242 12.2780237280543876 50.4083010717629350   T   T   T
 13.2913505709540303 13.8127766940611867 50.4083010717629350   T   T   T
 15.9496206851448363 15.3475296600679840 50.4083010717629350   T   T   T
 18.6078907993356424 16.8822826260747796 50.4083010717629350   T   T   T
  2.6582701141908069  4.6042588980203956 50.4083010717629350   T   T   T
  5.3165402283816121  6.1390118640271938 50.4083010717629350   T   T   T
  7.9748103425724182  7.6737648300339920 50.4083010717629350   T   T   T
 10.6330804567632224  9.2085177960407911 50.4083010717629350   T   T   T
 13.2913505709540285 10.7432707620475885 50.4083010717629350   T   T   T
 15.9496206851448381 12.2780237280543876 50.4083010717629350   T   T   T
 18.6078907993356424 13.8127766940611867 50.4083010717629350   T   T   T
 21.2661609135264449 15.3475296600679840 50.4083010717629350   T   T   T
 23.9244310277172545 16.8822826260747796 50.4083010717629350   T   T   T
  0.0000000000000000  0.0000000000000000 50.4083010717629350   T   T   T
  2.6582701141908061  1.5347529660067984 50.4083010717629350   T   T   T
  5.3165402283816121  3.0695059320135969 50.4083010717629350   T   T   T
  7.9748103425724182  4.6042588980203956 50.4083010717629350   T   T   T
 10.6330804567632242  6.1390118640271938 50.4083010717629350   T   T   T
 13.2913505709540267  7.6737648300339920 50.4083010717629350   T   T   T
 15.9496206851448363  9.2085177960407911 50.4083010717629350   T   T   T
 18.6078907993356424 10.7432707620475885 50.4083010717629350   T   T   T
 21.2661609135264484 12.2780237280543876 50.4083010717629350   T   T   T
 23.9244310277172545 13.8127766940611867 50.4083010717629350   T   T   T
 26.5827011419080534 15.3475296600679840 50.4083010717629350   T   T   T
 29.2409712560988737 16.8822826260747796 50.4083010717629350   T   T   T
  5.3165402283816112  0.0000000000000000 50.4083010717629350   T   T   T
  7.9748103425724173  1.5347529660067984 50.4083010717629350   T   T   T
 10.6330804567632207  3.0695059320135969 50.4083010717629350   T   T   T
 13.2913505709540303  4.6042588980203956 50.4083010717629350   T   T   T
 15.9496206851448346  6.1390118640271938 50.4083010717629350   T   T   T
 18.6078907993356388  7.6737648300339920 50.4083010717629350   T   T   T
 21.2661609135264484  9.2085177960407911 50.4083010717629350   T   T   T
 23.9244310277172474 10.7432707620475885 50.4083010717629350   T   T   T
 26.5827011419080570 12.2780237280543876 50.4083010717629350   T   T   T
 10.6330804567632224  0.0000000000000000 50.4083010717629350   T   T   T
 13.2913505709540338  1.5347529660067984 50.4083010717629350   T   T   T
 15.9496206851448346  3.0695059320135969 50.4083010717629350   T   T   T
 18.6078907993356388  4.6042588980203956 50.4083010717629350   T   T   T
 21.2661609135264413  6.1390118640271938 50.4083010717629350   T   T   T
 23.9244310277172545  7.6737648300339920 50.4083010717629350   T   T   T
 15.9496206851448328  0.0000000000000000 50.4083010717629350   T   T   T
 18.6078907993356388  1.5347529660067980 50.4083010717629350   T   T   T
 21.2661609135264413  3.0695059320135964 50.4083010717629350   T   T   T
  8.8609003806360231 12.2780237280543876 48.4083010717629492   T   T   T
 11.5191704948268274 13.8127766940611849 48.4083010717629492   T   T   T
 14.1774406090176335 15.3475296600679822 48.4083010717629492   T   T   T
  6.2026302664452144  7.6737648300339929 48.4083010717629492   T   T   T
  8.8609003806360196  9.2085177960407893 48.4083010717629492   T   T   T
 11.5191704948268274 10.7432707620475885 48.4083010717629492   T   T   T
 14.1774406090176335 12.2780237280543876 48.4083010717629492   T   T   T
 16.8357107232084360 13.8127766940611849 48.4083010717629492   T   T   T
 19.4939808373992420 15.3475296600679822 48.4083010717629492   T   T   T
  3.5443601522544075  3.0695059320135973 48.4083010717629492   T   T   T
  6.2026302664452153  4.6042588980203956 48.4083010717629492   T   T   T
  8.8609003806360178  6.1390118640271938 48.4083010717629492   T   T   T
 11.5191704948268239  7.6737648300339929 48.4083010717629492   T   T   T
 14.1774406090176335  9.2085177960407893 48.4083010717629492   T   T   T
 16.8357107232084360 10.7432707620475885 48.4083010717629492   T   T   T
 19.4939808373992420 12.2780237280543876 48.4083010717629492   T   T   T
 22.1522509515900481 13.8127766940611849 48.4083010717629492   T   T   T
 24.8105210657808612 15.3475296600679822 48.4083010717629492   T   T   T
 11.5191704948268292 16.8822826260747796 48.4083010717629492   T   T   T
  3.5443601522544075  0.0000000000000000 48.4083010717629492   T   T   T
  6.2026302664452135  1.5347529660067984 48.4083010717629492   T   T   T
  8.8609003806360214  3.0695059320135973 48.4083010717629492   T   T   T
 11.5191704948268274  4.6042588980203956 48.4083010717629492   T   T   T
 14.1774406090176317  6.1390118640271938 48.4083010717629492   T   T   T
 16.8357107232084360  7.6737648300339929 48.4083010717629492   T   T   T
 19.4939808373992456  9.2085177960407893 48.4083010717629492   T   T   T
 22.1522509515900516 10.7432707620475885 48.4083010717629492   T   T   T
 24.8105210657808577 12.2780237280543876 48.4083010717629492   T   T   T
 27.4687911799716602 13.8127766940611849 48.4083010717629492   T   T   T
  8.8609003806360267 15.3475296600679822 48.4083010717629492   T   T   T
 16.8357107232084395 16.8822826260747796 48.4083010717629492   T   T   T
  8.8609003806360196  0.0000000000000000 48.4083010717629492   T   T   T
 11.5191704948268239  1.5347529660067984 48.4083010717629492   T   T   T
 14.1774406090176317  3.0695059320135973 48.4083010717629492   T   T   T
 16.8357107232084324  4.6042588980203956 48.4083010717629492   T   T   T
 19.4939808373992420  6.1390118640271938 48.4083010717629492   T   T   T
 22.1522509515900516  7.6737648300339929 48.4083010717629492   T   T   T
 24.8105210657808541  9.2085177960407893 48.4083010717629492   T   T   T
 27.4687911799716531 10.7432707620475885 48.4083010717629492   T   T   T
 22.1522509515900552 16.8822826260747796 48.4083010717629492   T   T   T
 14.1774406090176335  0.0000000000000000 48.4083010717629492   T   T   T
 16.8357107232084360  1.5347529660067984 48.4083010717629492   T   T   T
 19.4939808373992420  3.0695059320135973 48.4083010717629492   T   T   T
 22.1522509515900445  4.6042588980203956 48.4083010717629492   T   T   T
  3.5443601522544093  6.1390118640271938 48.4083010717629492   T   T   T
 27.4687911799716566 16.8822826260747796 48.4083010717629492   T   T   T
 19.4939808373992420  0.0000000000000000 48.4083010717629492   T   T   T
 22.1522509515900445  1.5347529660067980 48.4083010717629492   T   T   T
  7.9748103425724208 13.8127766940611867 30.4083010717629421   T   T   T
 10.6330804567632242 15.3475296600679840 30.4083010717629421   T   T   T
 13.2913505709540303 16.8822826260747796 30.4083010717629421   T   T   T
  5.3165402283816139  9.2085177960407911 30.4083010717629421   T   T   T
  7.9748103425724182 10.7432707620475885 30.4083010717629421   T   T   T
 10.6330804567632242 12.2780237280543876 30.4083010717629421   T   T   T
 13.2913505709540303 13.8127766940611867 30.4083010717629421   T   T   T
 15.9496206851448363 15.3475296600679840 30.4083010717629421   T   T   T
 18.6078907993356424 16.8822826260747796 30.4083010717629421   T   T   T
  2.6582701141908069  4.6042588980203956 30.4083010717629421   T   T   T
  5.3165402283816121  6.1390118640271938 30.4083010717629421   T   T   T
  7.9748103425724182  7.6737648300339920 30.4083010717629421   T   T   T
 10.6330804567632224  9.2085177960407911 30.4083010717629421   T   T   T
 13.2913505709540285 10.7432707620475885 30.4083010717629421   T   T   T
 15.9496206851448381 12.2780237280543876 30.4083010717629421   T   T   T
 18.6078907993356424 13.8127766940611867 30.4083010717629421   T   T   T
 21.2661609135264449 15.3475296600679840 30.4083010717629456   T   T   T
 23.9244310277172545 16.8822826260747796 30.4083010717629456   T   T   T
  0.0000000000000000  0.0000000000000000 30.4083010717629421   T   T   T
  2.6582701141908061  1.5347529660067984 30.4083010717629421   T   T   T
  5.3165402283816121  3.0695059320135969 30.4083010717629421   T   T   T
  7.9748103425724182  4.6042588980203956 30.4083010717629421   T   T   T
 10.6330804567632242  6.1390118640271938 30.4083010717629421   T   T   T
 13.2913505709540267  7.6737648300339920 30.4083010717629421   T   T   T
 15.9496206851448363  9.2085177960407911 30.4083010717629421   T   T   T
 18.6078907993356424 10.7432707620475885 30.4083010717629421   T   T   T
 21.2661609135264484 12.2780237280543876 30.4083010717629421   T   T   T
 23.9244310277172545 13.8127766940611867 30.4083010717629456   T   T   T
 26.5827011419080534 15.3475296600679840 30.4083010717629456   T   T   T
 29.2409712560988737 16.8822826260747796 30.4083010717629456   T   T   T
  5.3165402283816112  0.0000000000000000 30.4083010717629421   T   T   T
  7.9748103425724173  1.5347529660067984 30.4083010717629421   T   T   T
 10.6330804567632207  3.0695059320135969 30.4083010717629421   T   T   T
 13.2913505709540303  4.6042588980203956 30.4083010717629421   T   T   T
 15.9496206851448346  6.1390118640271938 30.4083010717629421   T   T   T
 18.6078907993356388  7.6737648300339920 30.4083010717629421   T   T   T
 21.2661609135264484  9.2085177960407911 30.4083010717629421   T   T   T
 23.9244310277172474 10.7432707620475885 30.4083010717629456   T   T   T
 26.5827011419080570 12.2780237280543876 30.4083010717629456   T   T   T
 10.6330804567632224  0.0000000000000000 30.4083010717629421   T   T   T
 13.2913505709540338  1.5347529660067984 30.4083010717629421   T   T   T
 15.9496206851448346  3.0695059320135969 30.4083010717629421   T   T   T
 18.6078907993356388  4.6042588980203956 30.4083010717629421   T   T   T
 21.2661609135264413  6.1390118640271938 30.4083010717629421   T   T   T
 23.9244310277172545  7.6737648300339920 30.4083010717629421   T   T   T
 15.9496206851448328  0.0000000000000000 30.4083010717629421   T   T   T
 18.6078907993356388  1.5347529660067980 30.4083010717629421   T   T   T
 21.2661609135264413  3.0695059320135964 30.4083010717629421   T   T   T
  8.8609003806360231 12.2780237280543876 28.4083010717629350   T   T   T
 11.5191704948268274 13.8127766940611849 28.4083010717629350   T   T   T
 14.1774406090176335 15.3475296600679822 28.4083010717629350   T   T   T
  6.2026302664452144  7.6737648300339929 28.4083010717629350   T   T   T
  8.8609003806360196  9.2085177960407893 28.4083010717629350   T   T   T
 11.5191704948268274 10.7432707620475885 28.4083010717629350   T   T   T
 14.1774406090176335 12.2780237280543876 28.4083010717629350   T   T   T
 16.8357107232084360 13.8127766940611849 28.4083010717629350   T   T   T
 19.4939808373992420 15.3475296600679822 28.4083010717629350   T   T   T
  3.5443601522544075  3.0695059320135973 28.4083010717629350   T   T   T
  6.2026302664452153  4.6042588980203956 28.4083010717629350   T   T   T
  8.8609003806360178  6.1390118640271938 28.4083010717629350   T   T   T
 11.5191704948268239  7.6737648300339929 28.4083010717629350   T   T   T
 14.1774406090176335  9.2085177960407893 28.4083010717629350   T   T   T
 16.8357107232084360 10.7432707620475885 28.4083010717629350   T   T   T
 19.4939808373992420 12.2780237280543876 28.4083010717629350   T   T   T
 22.1522509515900481 13.8127766940611849 28.4083010717629385   T   T   T
 24.8105210657808612 15.3475296600679822 28.4083010717629385   T   T   T
 11.5191704948268292 16.8822826260747796 28.4083010717629350   T   T   T
  3.5443601522544075  0.0000000000000000 28.4083010717629350   T   T   T
  6.2026302664452135  1.5347529660067984 28.4083010717629350   T   T   T
  8.8609003806360214  3.0695059320135973 28.4083010717629350   T   T   T
 11.5191704948268274  4.6042588980203956 28.4083010717629350   T   T   T
 14.1774406090176317  6.1390118640271938 28.4083010717629350   T   T   T
 16.8357107232084360  7.6737648300339929 28.4083010717629350   T   T   T
 19.4939808373992456  9.2085177960407893 28.4083010717629350   T   T   T
 22.1522509515900516 10.7432707620475885 28.4083010717629350   T   T   T
 24.8105210657808577 12.2780237280543876 28.4083010717629385   T   T   T
 27.4687911799716602 13.8127766940611849 28.4083010717629385   T   T   T
  8.8609003806360267 15.3475296600679822 28.4083010717629350   T   T   T
 16.8357107232084395 16.8822826260747796 28.4083010717629350   T   T   T
  8.8609003806360196  0.0000000000000000 28.4083010717629350   T   T   T
 11.5191704948268239  1.5347529660067984 28.4083010717629350   T   T   T
 14.1774406090176317  3.0695059320135973 28.4083010717629350   T   T   T
 16.8357107232084324  4.6042588980203956 28.4083010717629350   T   T   T
 19.4939808373992420  6.1390118640271938 28.4083010717629350   T   T   T
 22.1522509515900516  7.6737648300339929 28.4083010717629350   T   T   T
 24.8105210657808541  9.2085177960407893 28.4083010717629385   T   T   T
 27.4687911799716531 10.7432707620475885 28.4083010717629385   T   T   T
 22.1522509515900552 16.8822826260747796 28.4083010717629385   T   T   T
 14.1774406090176335  0.0000000000000000 28.4083010717629350   T   T   T
 16.8357107232084360  1.5347529660067984 28.4083010717629350   T   T   T
 19.4939808373992420  3.0695059320135973 28.4083010717629350   T   T   T
 22.1522509515900445  4.6042588980203956 28.4083010717629350   T   T   T
  3.5443601522544093  6.1390118640271938 28.4083010717629350   T   T   T
 27.4687911799716566 16.8822826260747796 28.4083010717629385   T   T   T
 19.4939808373992420  0.0000000000000000 28.4083010717629350   T   T   T
 22.1522509515900445  1.5347529660067980 28.4083010717629350   T   T   T
  9.7469904186996246 13.8127766940611867 32.4083010717629350   T   T   T
 12.4052605328904306 15.3475296600679840 32.4083010717629350   T   T   T
 15.0635306470812367 16.8822826260747796 32.4083010717629350   T   T   T
  7.0887203045088159  9.2085177960407911 32.4083010717629350   T   T   T
  9.7469904186996228 10.7432707620475885 32.4083010717629350   T   T   T
 12.4052605328904306 12.2780237280543876 32.4083010717629350   T   T   T
 15.0635306470812331 13.8127766940611867 32.4083010717629350   T   T   T
 17.7218007612720356 15.3475296600679840 32.4083010717629350   T   T   T
 20.3800708754628488 16.8822826260747796 32.4083010717629350   T   T   T
  4.4304501903180098  4.6042588980203956 32.4083010717629350   T   T   T
  7.0887203045088150  6.1390118640271938 32.4083010717629350   T   T   T
  9.7469904186996228  7.6737648300339920 32.4083010717629350   T   T   T
 12.4052605328904306  9.2085177960407911 32.4083010717629350   T   T   T
 15.0635306470812331 10.7432707620475885 32.4083010717629350   T   T   T
 17.7218007612720356 12.2780237280543876 32.4083010717629350   T   T   T
 20.3800708754628417 13.8127766940611867 32.4083010717629350   T   T   T
 23.0383409896536548 15.3475296600679840 32.4083010717629350   T   T   T
 25.6966111038444573 16.8822826260747796 32.4083010717629350   T   T   T
  1.7721800761272037  0.0000000000000000 32.4083010717629350   T   T   T
  4.4304501903180107  1.5347529660067984 32.4083010717629350   T   T   T
  7.0887203045088159  3.0695059320135969 32.4083010717629350   T   T   T
  9.7469904186996210  4.6042588980203956 32.4083010717629350   T   T   T
 12.4052605328904288  6.1390118640271938 32.4083010717629350   T   T   T
 15.0635306470812331  7.6737648300339920 32.4083010717629350   T   T   T
 17.7218007612720427  9.2085177960407911 32.4083010717629350   T   T   T
 20.3800708754628452 10.7432707620475885 32.4083010717629350   T   T   T
 23.0383409896536548 12.2780237280543876 32.4083010717629350   T   T   T
 25.6966111038444573 13.8127766940611867 32.4083010717629350   T   T   T
 28.3548812180352598 15.3475296600679840 32.4083010717629350   T   T   T
  9.7469904186996299 16.8822826260747796 32.4083010717629350   T   T   T
  7.0887203045088150  0.0000000000000000 32.4083010717629350   T   T   T
  9.7469904186996210  1.5347529660067984 32.4083010717629350   T   T   T
 12.4052605328904253  3.0695059320135969 32.4083010717629350   T   T   T
 15.0635306470812331  4.6042588980203956 32.4083010717629350   T   T   T
 17.7218007612720356  6.1390118640271938 32.4083010717629350   T   T   T
 20.3800708754628452  7.6737648300339920 32.4083010717629350   T   T   T
 23.0383409896536548  9.2085177960407911 32.4083010717629350   T   T   T
 25.6966111038444573 10.7432707620475885 32.4083010717629350   T   T   T
  7.0887203045088185 12.2780237280543876 32.4083010717629350   T   T   T
 12.4052605328904271  0.0000000000000000 32.4083010717629350   T   T   T
 15.0635306470812331  1.5347529660067984 32.4083010717629350   T   T   T
 17.7218007612720356  3.0695059320135969 32.4083010717629350   T   T   T
 20.3800708754628381  4.6042588980203956 32.4083010717629350   T   T   T
 23.0383409896536513  6.1390118640271938 32.4083010717629350   T   T   T
  4.4304501903180107  7.6737648300339920 32.4083010717629350   T   T   T
 17.7218007612720392  0.0000000000000000 32.4083010717629350   T   T   T
 20.3800708754628452  1.5347529660067980 32.4083010717629350   T   T   T
  1.7721800761272042  3.0695059320135964 32.4083010717629350   T   T   T
  9.7469904186996246 13.8127766940611867 46.4083010717629421   T   T   T
 12.4052605328904306 15.3475296600679840 46.4083010717629421   T   T   T
 15.0635306470812367 16.8822826260747796 46.4083010717629421   T   T   T
  7.0887203045088159  9.2085177960407911 46.4083010717629421   T   T   T
  9.7469904186996228 10.7432707620475885 46.4083010717629421   T   T   T
 12.4052605328904306 12.2780237280543876 46.4083010717629421   T   T   T
 15.0635306470812331 13.8127766940611867 46.4083010717629421   T   T   T
 17.7218007612720356 15.3475296600679840 46.4083010717629421   T   T   T
 20.3800708754628488 16.8822826260747796 46.4083010717629421   T   T   T
  4.4304501903180098  4.6042588980203956 46.4083010717629421   T   T   T
  7.0887203045088150  6.1390118640271938 46.4083010717629421   T   T   T
  9.7469904186996228  7.6737648300339920 46.4083010717629421   T   T   T
 12.4052605328904306  9.2085177960407911 46.4083010717629421   T   T   T
 15.0635306470812331 10.7432707620475885 46.4083010717629421   T   T   T
 17.7218007612720356 12.2780237280543876 46.4083010717629421   T   T   T
 20.3800708754628417 13.8127766940611867 46.4083010717629421   T   T   T
 23.0383409896536548 15.3475296600679840 46.4083010717629421   T   T   T
 25.6966111038444573 16.8822826260747796 46.4083010717629421   T   T   T
  1.7721800761272037  0.0000000000000000 46.4083010717629421   T   T   T
  4.4304501903180107  1.5347529660067984 46.4083010717629421   T   T   T
  7.0887203045088159  3.0695059320135969 46.4083010717629421   T   T   T
  9.7469904186996210  4.6042588980203956 46.4083010717629421   T   T   T
 12.4052605328904288  6.1390118640271938 46.4083010717629421   T   T   T
 15.0635306470812331  7.6737648300339920 46.4083010717629421   T   T   T
 17.7218007612720427  9.2085177960407911 46.4083010717629421   T   T   T
 20.3800708754628452 10.7432707620475885 46.4083010717629421   T   T   T
 23.0383409896536548 12.2780237280543876 46.4083010717629421   T   T   T
 25.6966111038444573 13.8127766940611867 46.4083010717629421   T   T   T
 28.3548812180352598 15.3475296600679840 46.4083010717629421   T   T   T
  9.7469904186996299 16.8822826260747796 46.4083010717629421   T   T   T
  7.0887203045088150  0.0000000000000000 46.4083010717629421   T   T   T
  9.7469904186996210  1.5347529660067984 46.4083010717629421   T   T   T
 12.4052605328904253  3.0695059320135969 46.4083010717629421   T   T   T
 15.0635306470812331  4.6042588980203956 46.4083010717629421   T   T   T
 17.7218007612720356  6.1390118640271938 46.4083010717629421   T   T   T
 20.3800708754628452  7.6737648300339920 46.4083010717629421   T   T   T
 23.0383409896536548  9.2085177960407911 46.4083010717629421   T   T   T
 25.6966111038444573 10.7432707620475885 46.4083010717629421   T   T   T
  7.0887203045088185 12.2780237280543876 46.4083010717629421   T   T   T
 12.4052605328904271  0.0000000000000000 46.4083010717629421   T   T   T
 15.0635306470812331  1.5347529660067984 46.4083010717629421   T   T   T
 17.7218007612720356  3.0695059320135969 46.4083010717629421   T   T   T
 20.3800708754628381  4.6042588980203956 46.4083010717629421   T   T   T
 23.0383409896536513  6.1390118640271938 46.4083010717629421   T   T   T
  4.4304501903180107  7.6737648300339920 46.4083010717629421   T   T   T
 17.7218007612720392  0.0000000000000000 46.4083010717629421   T   T   T
 20.3800708754628452  1.5347529660067980 46.4083010717629421   T   T   T
  1.7721800761272042  3.0695059320135964 46.4083010717629421   T   T   T
  9.7469904186996246 13.8127766940611867 12.4083010717629367   T   T   T
 12.4052605328904306 15.3475296600679840 12.4083010717629367   T   T   T
 15.0635306470812367 16.8822826260747796 12.4083010717629367   T   T   T
  7.0887203045088159  9.2085177960407911 12.4083010717629350   T   T   T
  9.7469904186996228 10.7432707620475885 12.4083010717629367   T   T   T
 12.4052605328904306 12.2780237280543876 12.4083010717629367   T   T   T
 15.0635306470812331 13.8127766940611867 12.4083010717629367   T   T   T
 17.7218007612720356 15.3475296600679840 12.4083010717629367   T   T   T
 20.3800708754628488 16.8822826260747796 12.4083010717629367   T   T   T
  4.4304501903180098  4.6042588980203956 12.4083010717629350   T   T   T
  7.0887203045088150  6.1390118640271938 12.4083010717629350   T   T   T
  9.7469904186996228  7.6737648300339920 12.4083010717629350   T   T   T
 12.4052605328904306  9.2085177960407911 12.4083010717629367   T   T   T
 15.0635306470812331 10.7432707620475885 12.4083010717629367   T   T   T
 17.7218007612720356 12.2780237280543876 12.4083010717629367   T   T   T
 20.3800708754628417 13.8127766940611867 12.4083010717629367   T   T   T
 23.0383409896536548 15.3475296600679840 12.4083010717629367   T   T   T
 25.6966111038444573 16.8822826260747796 12.4083010717629367   T   T   T
  1.7721800761272037  0.0000000000000000 12.4083010717629350   T   T   T
  4.4304501903180107  1.5347529660067984 12.4083010717629350   T   T   T
  7.0887203045088159  3.0695059320135969 12.4083010717629350   T   T   T
  9.7469904186996210  4.6042588980203956 12.4083010717629350   T   T   T
 12.4052605328904288  6.1390118640271938 12.4083010717629367   T   T   T
 15.0635306470812331  7.6737648300339920 12.4083010717629367   T   T   T
 17.7218007612720427  9.2085177960407911 12.4083010717629367   T   T   T
 20.3800708754628452 10.7432707620475885 12.4083010717629367   T   T   T
 23.0383409896536548 12.2780237280543876 12.4083010717629367   T   T   T
 25.6966111038444573 13.8127766940611867 12.4083010717629367   T   T   T
 28.3548812180352598 15.3475296600679840 12.4083010717629367   T   T   T
  9.7469904186996299 16.8822826260747796 12.4083010717629367   T   T   T
  7.0887203045088150  0.0000000000000000 12.4083010717629350   T   T   T
  9.7469904186996210  1.5347529660067984 12.4083010717629350   T   T   T
 12.4052605328904253  3.0695059320135969 12.4083010717629350   T   T   T
 15.0635306470812331  4.6042588980203956 12.4083010717629367   T   T   T
 17.7218007612720356  6.1390118640271938 12.4083010717629367   T   T   T
 20.3800708754628452  7.6737648300339920 12.4083010717629367   T   T   T
 23.0383409896536548  9.2085177960407911 12.4083010717629367   T   T   T
 25.6966111038444573 10.7432707620475885 12.4083010717629367   T   T   T
  7.0887203045088185 12.2780237280543876 12.4083010717629350   T   T   T
 12.4052605328904271  0.0000000000000000 12.4083010717629350   T   T   T
 15.0635306470812331  1.5347529660067984 12.4083010717629367   T   T   T
 17.7218007612720356  3.0695059320135969 12.4083010717629367   T   T   T
 20.3800708754628381  4.6042588980203956 12.4083010717629367   T   T   T
 23.0383409896536513  6.1390118640271938 12.4083010717629367   T   T   T
  4.4304501903180107  7.6737648300339920 12.4083010717629350   T   T   T
 17.7218007612720392  0.0000000000000000 12.4083010717629367   T   T   T
 20.3800708754628452  1.5347529660067980 12.4083010717629367   T   T   T
  1.7721800761272042  3.0695059320135964 12.4083010717629350   T   T   T
  9.7469904186996246 13.8127766940611867 26.4083010717629456   T   T   T
 12.4052605328904306 15.3475296600679840 26.4083010717629456   T   T   T
 15.0635306470812367 16.8822826260747796 26.4083010717629456   T   T   T
  7.0887203045088159  9.2085177960407911 26.4083010717629456   T   T   T
  9.7469904186996228 10.7432707620475885 26.4083010717629456   T   T   T
 12.4052605328904306 12.2780237280543876 26.4083010717629456   T   T   T
 15.0635306470812331 13.8127766940611867 26.4083010717629456   T   T   T
 17.7218007612720356 15.3475296600679840 26.4083010717629456   T   T   T
 20.3800708754628488 16.8822826260747796 26.4083010717629492   T   T   T
  4.4304501903180098  4.6042588980203956 26.4083010717629456   T   T   T
  7.0887203045088150  6.1390118640271938 26.4083010717629456   T   T   T
  9.7469904186996228  7.6737648300339920 26.4083010717629456   T   T   T
 12.4052605328904306  9.2085177960407911 26.4083010717629456   T   T   T
 15.0635306470812331 10.7432707620475885 26.4083010717629456   T   T   T
 17.7218007612720356 12.2780237280543876 26.4083010717629456   T   T   T
 20.3800708754628417 13.8127766940611867 26.4083010717629456   T   T   T
 23.0383409896536548 15.3475296600679840 26.4083010717629492   T   T   T
 25.6966111038444573 16.8822826260747796 26.4083010717629492   T   T   T
  1.7721800761272037  0.0000000000000000 26.4083010717629456   T   T   T
  4.4304501903180107  1.5347529660067984 26.4083010717629456   T   T   T
  7.0887203045088159  3.0695059320135969 26.4083010717629456   T   T   T
  9.7469904186996210  4.6042588980203956 26.4083010717629456   T   T   T
 12.4052605328904288  6.1390118640271938 26.4083010717629456   T   T   T
 15.0635306470812331  7.6737648300339920 26.4083010717629456   T   T   T
 17.7218007612720427  9.2085177960407911 26.4083010717629456   T   T   T
 20.3800708754628452 10.7432707620475885 26.4083010717629456   T   T   T
 23.0383409896536548 12.2780237280543876 26.4083010717629492   T   T   T
 25.6966111038444573 13.8127766940611867 26.4083010717629492   T   T   T
 28.3548812180352598 15.3475296600679840 26.4083010717629492   T   T   T
  9.7469904186996299 16.8822826260747796 26.4083010717629456   T   T   T
  7.0887203045088150  0.0000000000000000 26.4083010717629456   T   T   T
  9.7469904186996210  1.5347529660067984 26.4083010717629456   T   T   T
 12.4052605328904253  3.0695059320135969 26.4083010717629456   T   T   T
 15.0635306470812331  4.6042588980203956 26.4083010717629456   T   T   T
 17.7218007612720356  6.1390118640271938 26.4083010717629456   T   T   T
 20.3800708754628452  7.6737648300339920 26.4083010717629456   T   T   T
 23.0383409896536548  9.2085177960407911 26.4083010717629456   T   T   T
 25.6966111038444573 10.7432707620475885 26.4083010717629492   T   T   T
  7.0887203045088185 12.2780237280543876 26.4083010717629456   T   T   T
 12.4052605328904271  0.0000000000000000 26.4083010717629456   T   T   T
 15.0635306470812331  1.5347529660067984 26.4083010717629456   T   T   T
 17.7218007612720356  3.0695059320135969 26.4083010717629456   T   T   T
 20.3800708754628381  4.6042588980203956 26.4083010717629456   T   T   T
 23.0383409896536513  6.1390118640271938 26.4083010717629456   T   T   T
  4.4304501903180107  7.6737648300339920 26.4083010717629456   T   T   T
 17.7218007612720392  0.0000000000000000 26.4083010717629456   T   T   T
 20.3800708754628452  1.5347529660067980 26.4083010717629456   T   T   T
  1.7721800761272042  3.0695059320135964 26.4083010717629456   T   T   T
 13.7789660376394796 10.1510216921777445 53.2083010717629392   T   T   T
 16.1789660376394799 10.1510216921777445 53.2083010717629392   T   T   T
