Mo B  Mo B  Mo B  Mo B  Mo B  Mo B  Mo B  Mo B  Mo B  Mo B  Mo B  Mo B  Mo B  Mo B  Mo B  Mo B  Mo B  Mo B  Mo B  Mo Ru Mo B  Mo B  Mo B  Mo B  Mo B  Mo B  Mo B  Mo B  Mo B  Mo B  Mo B  Mo B  Mo B  Mo B  Mo B  Mo B  Mo B 
 1.0000000000000000
    13.1946125369409764    0.0000000000000000    0.0000000000000000
    -6.5973062684704882   51.2761830677752286    0.0000000000000000
     0.0000000000000000    0.0000000000000000   23.8640520885999763
 Mo  B   Mo  B   Mo  B   Mo  B   Mo  B   Mo  B   Mo  B   Mo  B   Mo  B   Mo  B   Mo  B   Mo  B   Mo  B   Mo  B   Mo  B   Mo  B   Mo  B   Mo  B   Mo  B   Mo  Ru  Mo  B   Mo  B   Mo  B   Mo  B   Mo  B   Mo  B   Mo  B   Mo  B   Mo  B   Mo  B   Mo  B   Mo  B   Mo  B   Mo  B   Mo  B   Mo  B   Mo  B  
   8   8   8   8   8   8   8   8   8   8   8   8   8   8   8   8   8   8   8   8   8   8   8   8   8   8   8   8   8   8   8   8   8   8   8   8   8   8   4   1   3   8   8   8   8   8   8   8   8   8   8   8   8   8   8   8   8   8   8   8   8   8   8   8   8   8   8   8   8   8   8   8   8   8
Selective dynamics
Cartesian
  2.1991020894901623 13.7806644376398300  8.0000000000000000   F   F   F
 -0.0000000000000003  9.5783845074978089  8.5452060516222943   F   F   F
  3.2986531342352432  5.2346339263439612  8.0000000000000000   F   F   F
  1.0995510447450809  1.0323539962019381  8.5452060516222943   F   F   F
  2.1991020894901623  3.5943378869755733  9.3215794691324412   F   F   F
 -0.0000000000000006  7.7966178171175953  8.7763734175101469   F   F   F
  1.0995510447450809 12.1403683982714465  9.3215794691324412   F   F   F
 -1.0995510447450823 16.3426483284134640  8.7763734175101451   F   F   F
  2.1991020894901627 11.2424873598340529  8.3293044551798641   F   F   F
 -0.0000000000000014  7.0402074296920318  8.8745105068021584   F   F   F
  3.2986531342352436  2.6964568485381815  8.3293044551798641   F   F   F
 -1.0995510447450823 15.5862379409878997  8.8745105068021584   F   F   F
  2.1991020894901618  6.1325149647813539  8.9922750139525753   F   F   F
 -0.0000000000000005 10.3347948949233714  8.4470689623302810   F   F   F
  1.0995510447450807 14.6785454760772236  8.9922750139525753   F   F   F
  1.0995510447450809  1.7887643836275005  8.4470689623302810   F   F   F
 -0.0000000000000018 14.0636057396634921 10.1808242064891772   F   F   F
  2.1991020894901618  9.8613258095214711 10.7260302581114715   F   F   F
  1.0995510447450803  5.5175752283676243 10.1808242064891772   F   F   F
  3.2986531342352428  1.3152952982256005 10.7260302581114715   F   F   F
 -0.0000000000000009  3.8772791889992355 11.5024036756216184   F   F   F
  2.1991020894901618  8.0795591191412566 10.9571976239993241   F   F   F
 -1.0995510447450827 12.4233097002951087 11.5024036756216184   F   F   F
  1.0995510447450798 16.6255896304371262 10.9571976239993241   F   F   F
 -0.0000000000000014 11.5254286618577151 10.5101286616690430   F   F   F
  2.1991020894901618  7.3231487317156949 11.0553347132913373   F   F   F
  1.0995510447450809  2.9793981505618441 10.5101286616690430   F   F   F
  1.0995510447450791 15.8691792430115601 11.0553347132913373   F   F   F
 -0.0000000000000019  6.4154562668050179 11.1730992204417525   F   F   F
  2.1991020894901618 10.6177361969470336 10.6278931688194582   F   F   F
 -1.0995510447450827 14.9614867781008858 11.1730992204417525   F   F   F
  3.2986531342352432  2.0717056856511631 10.6278931688194582   F   F   F
  2.1991020894901605 14.3465470416871526 12.3616484129783561   T   T   T
 -0.0000000000000022 10.1442671115451315 12.9068544646006504   T   T   T
  3.2986531342352441  5.8005165303912865 12.3616484129783544   T   T   T
  1.0995510447450789  1.5982366002492625 12.9068544646006504   T   T   T
  2.1991020894901618  4.1602204910228977 13.6832278821107991   T   T   T
 -0.0000000000000012  8.3625004211649205 13.1380218304885013   T   T   T
  1.0995510447450800 12.7062510023187709 13.6832278821107991   T   T   T
 -1.0995510447450840 16.9085309324607884 13.1380218304885013   T   T   T
  2.1991020894901596 11.8083699638813791 12.6909528681582202   T   T   T
 -0.0000000000000021  7.6060900337393571 13.2361589197805145   T   T   T
  3.2986531342352414  3.2623394525855063 12.6909528681582202   T   T   T
 -1.0995510447450829 16.1521205450352241 13.2361589197805145   T   T   T
  2.1991020894901605  6.6983975688286801 13.3539234269309297   T   T   T
 -0.0000000000000015 10.9006774989706958 12.8087173753086390   T   T   T
  1.0995510447450787 15.2444280801245462 13.3539234269309297   T   T   T
  1.0995510447450798  2.3546469876748253 12.8087173753086372   T   T   T
 -0.0000000000000025 14.6294883437108165 14.5424726194675333   T   T   T
  2.1991020894901609 10.4272084135687955 15.0876786710898276   T   T   T
  1.0995510447450785  6.0834578324149478 14.5424726194675316   T   T   T
  3.2986531342352423  1.8811779022729251 15.0876786710898294   T   T   T
 -0.0000000000000007  4.4431617930465608 15.8640520885999763   T   T   T
  2.1991020894901601  8.6454417231885810 15.3188460369776820   T   T   T
 -1.0995510447450823 12.9891923043424349 15.8640520885999727   T   T   T
  3.2986531342352419  0.0994112118927064 15.3188460369776802   T   T   T
 -0.0000000000000013 12.0913112659050412 14.8717770746473974   T   T   T
  2.1991020894901614  7.8890313357630193 15.4169831262696952   T   T   T
  1.0995510447450783  3.5452807546091685 14.8717770746473974   T   T   T
  1.0995510447450789 16.4350618470588863 15.4169831262696935   T   T   T
 -0.0000000000000026  6.9813388708523414 15.5347476334201087   T   T   T
  2.1991020894901609 11.1836188009943580 14.9895415817978144   T   T   T
 -1.0995510447450836 15.5273693821482102 15.5347476334201087   T   T   T
  3.2986531342352423  2.6375882896984875 14.9895415817978144   T   T   T
 -0.0000000000000004 30.8727254602315710  8.0000000000000000   F   F   F
 -2.1991020894901632 26.6704455300895518  8.5452060516222943   F   F   F
  1.0995510447450805 22.3266949489357032  8.0000000000000000   F   F   F
 -1.0995510447450818 18.1244150187936803  8.5452060516222943   F   F   F
 -0.0000000000000004 20.6863989095673162  9.3215794691324412   F   F   F
 -2.1991020894901632 24.8886788397093390  8.7763734175101469   F   F   F
 -1.0995510447450818 29.2324294208631912  9.3215794691324412   F   F   F
 -3.2986531342352450 33.4347093510052105  8.7763734175101451   F   F   F
  0.0000000000000000 28.3345483824257940  8.3293044551798641   F   F   F
 -2.1991020894901641 24.1322684522837747  8.8745105068021584   F   F   F
  1.0995510447450809 19.7885178711299261  8.3293044551798641   F   F   F
 -3.2986531342352450 32.6782989635796426  8.8745105068021584   F   F   F
 -0.0000000000000009 23.2245759873730968  8.9922750139525753   F   F   F
 -2.1991020894901632 27.4268559175151125  8.4470689623302810   F   F   F
 -1.0995510447450820 31.7706064986689682  8.9922750139525753   F   F   F
 -1.0995510447450818 18.8808254062192447  8.4470689623302810   F   F   F
 -2.1991020894901645 31.1556667622552368 10.1808242064891772   F   F   F
 -0.0000000000000009 26.9533868321132140 10.7260302581114715   F   F   F
 -1.0995510447450825 22.6096362509593689 10.1808242064891772   F   F   F
  1.0995510447450800 18.4073563208173425 10.7260302581114715   F   F   F
 -2.1991020894901636 20.9693402115909784 11.5024036756216184   F   F   F
 -0.0000000000000009 25.1716201417330012 10.9571976239993241   F   F   F
 -3.2986531342352454 29.5153707228868498 11.5024036756216184   F   F   F
 -1.0995510447450829 33.7176506530288691 10.9571976239993241   F   F   F
 -2.1991020894901641 28.6174896844494597 10.5101286616690430   F   F   F
 -0.0000000000000009 24.4152097543074369 11.0553347132913373   F   F   F
 -1.0995510447450818 20.0714591731535883 10.5101286616690430   F   F   F
 -1.0995510447450836 32.9612402656033012 11.0553347132913373   F   F   F
 -2.1991020894901645 23.5075172893967590 11.1730992204417525   F   F   F
 -0.0000000000000009 27.7097972195387783 10.6278931688194582   F   F   F
 -3.2986531342352454 32.0535478006926269 11.1730992204417525   F   F   F
  1.0995510447450805 19.1637667082429068 10.6278931688194582   F   F   F
 -0.0000000000000022 31.4386080642788954 12.3616484129783561   T   T   T
 -2.1991020894901649 27.2363281341368761 12.9068544646006504   T   T   T
  1.0995510447450814 22.8925775529830275 12.3616484129783544   T   T   T
 -1.0995510447450838 18.6902976228410047 12.9068544646006504   T   T   T
 -0.0000000000000009 21.2522815136146406 13.6832278821107991   T   T   T
 -2.1991020894901641 25.4545614437566634 13.1380218304885013   T   T   T
 -1.0995510447450827 29.7983120249105156 13.6832278821107991   T   T   T
 -3.2986531342352468 34.0005919550525277 13.1380218304885013   T   T   T
 -0.0000000000000031 28.9004309864731219 12.6909528681582202   T   T   T
 -2.1991020894901649 24.6981510563310991 13.2361589197805145   T   T   T
  1.0995510447450787 20.3544004751772505 12.6909528681582202   T   T   T
 -3.2986531342352459 33.2441815676269670 13.2361589197805145   T   T   T
 -0.0000000000000022 23.7904585914204247 13.3539234269309297   T   T   T
 -2.1991020894901641 27.9927385215624369 12.8087173753086390   T   T   T
 -1.0995510447450840 32.3364891027162855 13.3539234269309297   T   T   T
 -1.0995510447450829 19.4467080102665690 12.8087173753086372   T   T   T
 -2.1991020894901654 31.7215493663025612 14.5424726194675333   T   T   T
 -0.0000000000000018 27.5192694361605383 15.0876786710898276   T   T   T
 -1.0995510447450842 23.1755188550066897 14.5424726194675316   T   T   T
  1.0995510447450796 18.9732389248646669 15.0876786710898294   T   T   T
 -2.1991020894901636 21.5352228156383028 15.8640520885999763   T   T   T
 -0.0000000000000027 25.7375027457803256 15.3188460369776820   T   T   T
 -3.2986531342352450 30.0812533269341777 15.8640520885999727   T   T   T
  1.0995510447450791 17.1914722344844506 15.3188460369776802   T   T   T
 -2.1991020894901641 29.1833722884967841 14.8717770746473974   T   T   T
 -0.0000000000000013 24.9810923583547613 15.4169831262696952   T   T   T
 -1.0995510447450845 20.6373417772009127 14.8717770746473974   T   T   T
 -1.0995510447450838 33.5271228696506256 15.4169831262696935   T   T   T
 -2.1991020894901654 24.0733998934440834 15.5347476334201087   T   T   T
 -0.0000000000000018 28.2756798235861027 14.9895415817978144   T   T   T
 -3.2986531342352463 32.6194304047399513 15.5347476334201087   T   T   T
  1.0995510447450796 19.7296493122902312 14.9895415817978144   T   T   T
 -2.1991020894901632 47.9647864828233139  8.0000000000000000   F   F   F
 -4.3982041789803255 43.7625065526812946  8.5452060516222943   F   F   F
 -1.0995510447450823 39.4187559715274460  8.0000000000000000   F   F   F
 -3.2986531342352445 35.2164760413854268  8.5452060516222943   F   F   F
 -2.1991020894901632 37.7784599321590591  9.3215794691324412   F   F   F
 -4.3982041789803263 41.9807398623010783  8.7763734175101469   F   F   F
 -3.2986531342352445 46.3244904434549341  9.3215794691324412   F   F   F
 -5.4977552237254077 50.5267703735969462  8.7763734175101451   F   F   F
 -2.1991020894901627 45.4266094050175369  8.3293044551798641   F   F   F
 -4.3982041789803272 41.2243294748755176  8.8745105068021584   F   F   F
 -1.0995510447450818 36.8805788937216690  8.3293044551798641   F   F   F
 -5.4977552237254077 49.7703599861713855  8.8745105068021584   F   F   F
 -2.1991020894901636 40.3166370099648361  8.9922750139525753   F   F   F
 -4.3982041789803263 44.5189169401068554  8.4470689623302810   F   F   F
 -3.2986531342352450 48.8626675212607111  8.9922750139525753   F   F   F
 -3.2986531342352445 35.9728864288109875  8.4470689623302810   F   F   F
 -4.3982041789803272 48.2477277848469797 10.1808242064891772   F   F   F
 -2.1991020894901636 44.0454478547049604 10.7260302581114715   F   F   F
 -3.2986531342352450 39.7016972735511118 10.1808242064891772   F   F   F
 -1.0995510447450827 35.4994173434090854 10.7260302581114715   F   F   F
 -4.3982041789803263 38.0614012341827248 11.5024036756216184   F   F   F
 -2.1991020894901636 42.2636811643247441 10.9571976239993241   F   F   F
 -5.4977552237254077 46.6074317454785927 11.5024036756216184   F   F   F
 -3.2986531342352459 50.8097116756206120 10.9571976239993241   F   F   F
 -4.3982041789803272 45.7095507070412026 10.5101286616690430   F   F   F
 -2.1991020894901636 41.5072707768991833 11.0553347132913373   F   F   F
 -3.2986531342352445 37.1635201957453276 10.5101286616690430   F   F   F
 -3.2986531342352463 50.0533012881950441 11.0553347132913373   F   F   F
 -4.3982041789803272 40.5995783119885019 11.1730992204417525   F   F   F
 -2.1991020894901636 44.8018582421305211 10.6278931688194582   F   F   F
 -5.4977552237254077 49.1456088232843697 11.1730992204417525   F   F   F
 -1.0995510447450823 36.2558277308346462 10.6278931688194582   F   F   F
 -2.1991020894901649 48.5306690868706383 12.3616484129783561   T   T   T
 -4.3982041789803272 44.3283891567286190 12.9068544646006504   T   T   T
 -1.0995510447450814 39.9846385755747704 12.3616484129783544   T   T   T
 -3.2986531342352468 35.7823586454327511 12.9068544646006504   T   T   T
 -2.1991020894901636 38.3443425362063834 13.6832278821107991   T   T   T
 -4.3982041789803263 42.5466224663484098 13.1380218304885013   T   T   T
 -3.2986531342352454 46.8903730475022584 13.6832278821107991   T   T   T
 -5.4977552237254095 51.0926529776442777 13.1380218304885013   T   T   T
 -2.1991020894901658 45.9924920090648612 12.6909528681582202   T   T   T
 -4.3982041789803272 41.7902120789228420 13.2361589197805145   T   T   T
 -1.0995510447450840 37.4464614977689934 12.6909528681582202   T   T   T
 -5.4977552237254086 50.3362425902187098 13.2361589197805145   T   T   T
 -2.1991020894901649 40.8825196140121676 13.3539234269309297   T   T   T
 -4.3982041789803272 45.0847995441541798 12.8087173753086390   T   T   T
 -3.2986531342352468 49.4285501253080355 13.3539234269309297   T   T   T
 -3.2986531342352459 36.5387690328583119 12.8087173753086372   T   T   T
 -4.3982041789803281 48.8136103888943040 14.5424726194675333   T   T   T
 -2.1991020894901645 44.6113304587522777 15.0876786710898276   T   T   T
 -3.2986531342352468 40.2675798775984362 14.5424726194675316   T   T   T
 -1.0995510447450831 36.0652999474564098 15.0876786710898294   T   T   T
 -4.3982041789803263 38.6272838382300492 15.8640520885999763   T   T   T
 -2.1991020894901654 42.8295637683720685 15.3188460369776820   T   T   T
 -5.4977552237254077 47.1733143495259242 15.8640520885999727   T   T   T
 -1.0995510447450836 34.2835332570761935 15.3188460369776802   T   T   T
 -4.3982041789803263 46.2754333110885270 14.8717770746473974   T   T   T
 -2.1991020894901641 42.0731533809465077 15.4169831262696952   T   T   T
 -3.2986531342352472 37.7294027997926520 14.8717770746473974   T   T   T
 -3.2986531342352468 50.6191838922423756 15.4169831262696935   T   T   T
 -4.3982041789803281 41.1654609160358262 15.5347476334201087   T   T   T
 -2.1991020894901645 45.3677408461778455 14.9895415817978144   T   T   T
 -5.4977552237254095 49.7114914273316941 15.5347476334201087   T   T   T
 -1.0995510447450831 36.8217103348819705 14.9895415817978144   T   T   T
  6.5973062684704882 13.7806644376398300  8.0000000000000000   F   F   F
  4.3982041789803255  9.5783845074978089  8.5452060516222943   F   F   F
  7.6968573132155687  5.2346339263439612  8.0000000000000000   F   F   F
  5.4977552237254059  1.0323539962019381  8.5452060516222943   F   F   F
  6.5973062684704882  3.5943378869755733  9.3215794691324412   F   F   F
  4.3982041789803246  7.7966178171175953  8.7763734175101469   F   F   F
  5.4977552237254059 12.1403683982714465  9.3215794691324412   F   F   F
  3.2986531342352432 16.3426483284134640  8.7763734175101451   F   F   F
  6.5973062684704882 11.2424873598340529  8.3293044551798641   F   F   F
  4.3982041789803237  7.0402074296920318  8.8745105068021584   F   F   F
  7.6968573132155687  2.6964568485381815  8.3293044551798641   F   F   F
  3.2986531342352432 15.5862379409878997  8.8745105068021584   F   F   F
  6.5973062684704873  6.1325149647813539  8.9922750139525753   F   F   F
  4.3982041789803246 10.3347948949233714  8.4470689623302810   F   F   F
  5.4977552237254059 14.6785454760772236  8.9922750139525753   F   F   F
  5.4977552237254059  1.7887643836275005  8.4470689623302810   F   F   F
  4.3982041789803237 14.0636057396634921 10.1808242064891772   F   F   F
  6.5973062684704873  9.8613258095214711 10.7260302581114715   F   F   F
  5.4977552237254059  5.5175752283676243 10.1808242064891772   F   F   F
  7.6968573132155687  1.3152952982256005 10.7260302581114715   F   F   F
  4.3982041789803246  3.8772791889992355 11.5024036756216184   F   F   F
  6.5973062684704873  8.0795591191412566 10.9571976239993241   F   F   F
  3.2986531342352428 12.4233097002951087 11.5024036756216184   F   F   F
  5.4977552237254050 16.6255896304371262 10.9571976239993241   F   F   F
  4.3982041789803237 11.5254286618577151 10.5101286616690430   F   F   F
  6.5973062684704873  7.3231487317156949 11.0553347132913373   F   F   F
  5.4977552237254059  2.9793981505618441 10.5101286616690430   F   F   F
  5.4977552237254042 15.8691792430115601 11.0553347132913373   F   F   F
  4.3982041789803237  6.4154562668050179 11.1730992204417525   F   F   F
  6.5973062684704873 10.6177361969470336 10.6278931688194582   F   F   F
  3.2986531342352428 14.9614867781008858 11.1730992204417525   F   F   F
  7.6968573132155687  2.0717056856511631 10.6278931688194582   F   F   F
  6.5973062684704864 14.3465470416871526 12.3616484129783561   T   T   T
  4.3982041789803237 10.1442671115451315 12.9068544646006504   T   T   T
  7.6968573132155695  5.8005165303912865 12.3616484129783544   T   T   T
  5.4977552237254042  1.5982366002492625 12.9068544646006504   T   T   T
  6.5973062684704873  4.1602204910228977 13.6832278821107991   T   T   T
  4.3982041789803246  8.3625004211649205 13.1380218304885013   T   T   T
  5.4977552237254059 12.7062510023187709 13.6832278821107991   T   T   T
  3.2986531342352414 16.9085309324607884 13.1380218304885013   T   T   T
  6.5973062684704846 11.8083699638813791 12.6909528681582202   T   T   T
  4.3982041789803237  7.6060900337393571 13.2361589197805145   T   T   T
  7.6968573132155669  3.2623394525855063 12.6909528681582202   T   T   T
  3.2986531342352423 16.1521205450352241 13.2361589197805145   T   T   T
  6.5973062684704864  6.6983975688286801 13.3539234269309297   T   T   T
  4.3982041789803237 10.9006774989706958 12.8087173753086390   T   T   T
  5.4977552237254042 15.2444280801245462 13.3539234269309297   T   T   T
  5.4977552237254050  2.3546469876748253 12.8087173753086372   T   T   T
  4.3982041789803228 14.6294883437108165 14.5424726194675333   T   T   T
  6.5973062684704864 10.4272084135687955 15.0876786710898276   T   T   T
  5.4977552237254042  6.0834578324149478 14.5424726194675316   T   T   T
  7.6968573132155678  1.8811779022729251 15.0876786710898294   T   T   T
  4.3982041789803246  4.4431617930465608 15.8640520885999763   T   T   T
  6.5973062684704855  8.6454417231885810 15.3188460369776820   T   T   T
  3.2986531342352432 12.9891923043424349 15.8640520885999727   T   T   T
  7.6968573132155669  0.0994112118927064 15.3188460369776802   T   T   T
  4.3982041789803246 12.0913112659050412 14.8717770746473974   T   T   T
  6.5973062684704864  7.8890313357630193 15.4169831262696952   T   T   T
  5.4977552237254042  3.5452807546091685 14.8717770746473974   T   T   T
  5.4977552237254042 16.4350618470588863 15.4169831262696935   T   T   T
  4.3982041789803228  6.9813388708523414 15.5347476334201087   T   T   T
  6.5973062684704864 11.1836188009943580 14.9895415817978144   T   T   T
  3.2986531342352419 15.5273693821482102 15.5347476334201087   T   T   T
  7.6968573132155678  2.6375882896984875 14.9895415817978144   T   T   T
  4.3982041789803255 30.8727254602315710  8.0000000000000000   F   F   F
  2.1991020894901623 26.6704455300895518  8.5452060516222943   F   F   F
  5.4977552237254059 22.3266949489357032  8.0000000000000000   F   F   F
  3.2986531342352436 18.1244150187936803  8.5452060516222943   F   F   F
  4.3982041789803255 20.6863989095673162  9.3215794691324412   F   F   F
  2.1991020894901623 24.8886788397093390  8.7763734175101469   F   F   F
  3.2986531342352436 29.2324294208631912  9.3215794691324412   F   F   F
  1.0995510447450805 33.4347093510052105  8.7763734175101451   F   F   F
  4.3982041789803255 28.3345483824257940  8.3293044551798641   F   F   F
  2.1991020894901614 24.1322684522837747  8.8745105068021584   F   F   F
  5.4977552237254059 19.7885178711299261  8.3293044551798641   F   F   F
  1.0995510447450805 32.6782989635796426  8.8745105068021584   F   F   F
  4.3982041789803246 23.2245759873730968  8.9922750139525753   F   F   F
  2.1991020894901623 27.4268559175151125  8.4470689623302810   F   F   F
  3.2986531342352432 31.7706064986689682  8.9922750139525753   F   F   F
  3.2986531342352436 18.8808254062192447  8.4470689623302810   F   F   F
  2.1991020894901609 31.1556667622552368 10.1808242064891772   F   F   F
  4.3982041789803246 26.9533868321132140 10.7260302581114715   F   F   F
  3.2986531342352432 22.6096362509593689 10.1808242064891772   F   F   F
  5.4977552237254059 18.4073563208173425 10.7260302581114715   F   F   F
  2.1991020894901618 20.9693402115909784 11.5024036756216184   F   F   F
  4.3982041789803246 25.1716201417330012 10.9571976239993241   F   F   F
  1.0995510447450800 29.5153707228868498 11.5024036756216184   F   F   F
  3.2986531342352423 33.7176506530288691 10.9571976239993241   F   F   F
  2.1991020894901614 28.6174896844494597 10.5101286616690430   F   F   F
  4.3982041789803246 24.4152097543074369 11.0553347132913373   F   F   F
  3.2986531342352436 20.0714591731535883 10.5101286616690430   F   F   F
  3.2986531342352419 32.9612402656033012 11.0553347132913373   F   F   F
  2.1991020894901609 23.5075172893967590 11.1730992204417525   F   F   F
  4.3982041789803246 27.7097972195387783 10.6278931688194582   F   F   F
  1.0995510447450800 32.0535478006926269 11.1730992204417525   F   F   F
  5.4977552237254059 19.1637667082429068 10.6278931688194582   F   F   F
  4.3982041789803237 31.4386080642788954 12.3616484129783561   T   T   T
  2.1991020894901605 27.2363281341368761 12.9068544646006504   T   T   T
  5.4977552237254068 22.8925775529830275 12.3616484129783544   T   T   T
  3.2986531342352414 18.6902976228410047 12.9068544646006504   T   T   T
  4.3982041789803246 21.2522815136146406 13.6832278821107991   T   T   T
  2.1991020894901614 25.4545614437566634 13.1380218304885013   T   T   T
  3.2986531342352428 29.7983120249105156 13.6832278821107991   T   T   T
  1.0995510447450787 34.0005919550525277 13.1380218304885013   T   T   T
  4.3982041789803219 28.9004309864731219 12.6909528681582202   T   T   T
  2.1991020894901605 24.6981510563310991 13.2361589197805145   T   T   T
  5.4977552237254042 20.3544004751772505 12.6909528681582202   T   T   T
  1.0995510447450798 33.2441815676269670 13.2361589197805145   T   T   T
  4.3982041789803237 23.7904585914204247 13.3539234269309297   T   T   T
  2.1991020894901614 27.9927385215624369 12.8087173753086390   T   T   T
  3.2986531342352414 32.3364891027162855 13.3539234269309297   T   T   T
  3.2986531342352423 19.4467080102665690 12.8087173753086372   T   T   T
  2.1991020894901601 31.7215493663025612 14.5424726194675333   T   T   T
  4.3982041789803237 27.5192694361605383 15.0876786710898276   T   T   T
  3.2986531342352414 23.1755188550066897 14.5424726194675316   T   T   T
  5.4977552237254050 18.9732389248646669 15.0876786710898294   T   T   T
  2.1991020894901618 21.5352228156383028 15.8640520885999763   T   T   T
  4.3982041789803228 25.7375027457803256 15.3188460369776820   T   T   T
  1.0995510447450805 30.0812533269341777 15.8640520885999727   T   T   T
  5.4977552237254042 17.1914722344844506 15.3188460369776802   T   T   T
  2.1991020894901614 29.1833722884967841 14.8717770746473974   T   T   T
  4.3982041789803237 24.9810923583547613 15.4169831262696952   T   T   T
  3.2986531342352410 20.6373417772009127 14.8717770746473974   T   T   T
  3.2986531342352414 33.5271228696506256 15.4169831262696935   T   T   T
  2.1991020894901601 24.0733998934440834 15.5347476334201087   T   T   T
  4.3982041789803237 28.2756798235861027 14.9895415817978144   T   T   T
  1.0995510447450791 32.6194304047399513 15.5347476334201087   T   T   T
  5.4977552237254050 19.7296493122902312 14.9895415817978144   T   T   T
  2.1991020894901623 47.9647864828233139  8.0000000000000000   F   F   F
 -0.0000000000000003 43.7625065526812946  8.5452060516222943   F   F   F
  3.2986531342352432 39.4187559715274460  8.0000000000000000   F   F   F
  1.0995510447450809 35.2164760413854268  8.5452060516222943   F   F   F
  2.1991020894901623 37.7784599321590591  9.3215794691324412   F   F   F
 -0.0000000000000006 41.9807398623010783  8.7763734175101469   F   F   F
  1.0995510447450809 46.3244904434549341  9.3215794691324412   F   F   F
 -1.0995510447450823 50.5267703735969462  8.7763734175101451   F   F   F
  2.1991020894901627 45.4266094050175369  8.3293044551798641   F   F   F
 -0.0000000000000014 41.2243294748755176  8.8745105068021584   F   F   F
  3.2986531342352436 36.8805788937216690  8.3293044551798641   F   F   F
 -1.0995510447450823 49.7703599861713855  8.8745105068021584   F   F   F
  2.1991020894901618 40.3166370099648361  8.9922750139525753   F   F   F
 -0.0000000000000005 44.5189169401068554  8.4470689623302810   F   F   F
  1.0995510447450807 48.8626675212607111  8.9922750139525753   F   F   F
  1.0995510447450809 35.9728864288109875  8.4470689623302810   F   F   F
 -0.0000000000000018 48.2477277848469797 10.1808242064891772   F   F   F
  2.1991020894901618 44.0454478547049604 10.7260302581114715   F   F   F
  1.0995510447450803 39.7016972735511118 10.1808242064891772   F   F   F
  3.2986531342352428 35.4994173434090854 10.7260302581114715   F   F   F
 -0.0000000000000009 38.0614012341827248 11.5024036756216184   F   F   F
  2.1991020894901618 42.2636811643247441 10.9571976239993241   F   F   F
 -1.0995510447450827 46.6074317454785927 11.5024036756216184   F   F   F
  1.0995510447450798 50.8097116756206120 10.9571976239993241   F   F   F
 -0.0000000000000014 45.7095507070412026 10.5101286616690430   F   F   F
  2.1991020894901618 41.5072707768991833 11.0553347132913373   F   F   F
  1.0995510447450809 37.1635201957453276 10.5101286616690430   F   F   F
  1.0995510447450791 50.0533012881950441 11.0553347132913373   F   F   F
 -0.0000000000000019 40.5995783119885019 11.1730992204417525   F   F   F
  2.1991020894901618 44.8018582421305211 10.6278931688194582   F   F   F
 -1.0995510447450827 49.1456088232843697 11.1730992204417525   F   F   F
  3.2986531342352432 36.2558277308346462 10.6278931688194582   F   F   F
  2.1991020894901605 48.5306690868706383 12.3616484129783561   T   T   T
 -0.0000000000000022 44.3283891567286190 12.9068544646006504   T   T   T
  3.2986531342352441 39.9846385755747704 12.3616484129783544   T   T   T
  1.0995510447450789 35.7823586454327511 12.9068544646006504   T   T   T
  2.1991020894901618 38.3443425362063834 13.6832278821107991   T   T   T
 -0.0000000000000012 42.5466224663484098 13.1380218304885013   T   T   T
  1.0995510447450800 46.8903730475022584 13.6832278821107991   T   T   T
 -1.0995510447450840 51.0926529776442777 13.1380218304885013   T   T   T
  2.1991020894901596 45.9924920090648612 12.6909528681582202   T   T   T
 -0.0000000000000021 41.7902120789228420 13.2361589197805145   T   T   T
  3.2986531342352414 37.4464614977689934 12.6909528681582202   T   T   T
 -1.0995510447450829 50.3362425902187098 13.2361589197805145   T   T   T
  2.1991020894901605 40.8825196140121676 13.3539234269309297   T   T   T
 -0.0000000000000015 45.0847995441541798 12.8087173753086390   T   T   T
  1.0995510447450787 49.4285501253080355 13.3539234269309297   T   T   T
  1.0995510447450798 36.5387690328583119 12.8087173753086372   T   T   T
 -0.0000000000000025 48.8136103888943040 14.5424726194675333   T   T   T
  2.1991020894901609 44.6113304587522777 15.0876786710898276   T   T   T
  1.0995510447450785 40.2675798775984362 14.5424726194675316   T   T   T
  3.2986531342352423 36.0652999474564098 15.0876786710898294   T   T   T
 -0.0000000000000007 38.6272838382300492 15.8640520885999763   T   T   T
  2.1991020894901601 42.8295637683720685 15.3188460369776820   T   T   T
 -1.0995510447450823 47.1733143495259242 15.8640520885999727   T   T   T
  3.2986531342352419 34.2835332570761935 15.3188460369776802   T   T   T
 -0.0000000000000013 46.2754333110885270 14.8717770746473974   T   T   T
  2.1991020894901614 42.0731533809465077 15.4169831262696952   T   T   T
  1.0995510447450783 37.7294027997926520 14.8717770746473974   T   T   T
  1.0995510447450789 50.6191838922423756 15.4169831262696935   T   T   T
 -0.0000000000000026 41.1654609160358262 15.5347476334201087   T   T   T
  2.1991020894901609 45.3677408461778455 14.9895415817978144   T   T   T
 -1.0995510447450836 49.7114914273316941 15.5347476334201087   T   T   T
  3.2986531342352423 36.8217103348819705 14.9895415817978144   T   T   T
 10.9955104474508136 13.7806644376398300  8.0000000000000000   F   F   F
  8.7964083579606509  9.5783845074978089  8.5452060516222943   F   F   F
 12.0950614921958941  5.2346339263439612  8.0000000000000000   F   F   F
  9.8959594027057314  1.0323539962019381  8.5452060516222943   F   F   F
 10.9955104474508136  3.5943378869755733  9.3215794691324412   F   F   F
  8.7964083579606509  7.7966178171175953  8.7763734175101469   F   F   F
  9.8959594027057314 12.1403683982714465  9.3215794691324412   F   F   F
  7.6968573132155687 16.3426483284134640  8.7763734175101451   F   F   F
 10.9955104474508136 11.2424873598340529  8.3293044551798641   F   F   F
  8.7964083579606491  7.0402074296920318  8.8745105068021584   F   F   F
 12.0950614921958941  2.6964568485381815  8.3293044551798641   F   F   F
  7.6968573132155687 15.5862379409878997  8.8745105068021584   F   F   F
 10.9955104474508119  6.1325149647813539  8.9922750139525753   F   F   F
  8.7964083579606509 10.3347948949233714  8.4470689623302810   F   F   F
  9.8959594027057314 14.6785454760772236  8.9922750139525753   F   F   F
  9.8959594027057314  1.7887643836275005  8.4470689623302810   F   F   F
  8.7964083579606491 14.0636057396634921 10.1808242064891772   F   F   F
 10.9955104474508119  9.8613258095214711 10.7260302581114715   F   F   F
  9.8959594027057314  5.5175752283676243 10.1808242064891772   F   F   F
 12.0950614921958941  1.3152952982256005 10.7260302581114715   F   F   F
  8.7964083579606491  3.8772791889992355 11.5024036756216184   F   F   F
 10.9955104474508119  8.0795591191412566 10.9571976239993241   F   F   F
  7.6968573132155687 12.4233097002951087 11.5024036756216184   F   F   F
  9.8959594027057314 16.6255896304371262 10.9571976239993241   F   F   F
  8.7964083579606491 11.5254286618577151 10.5101286616690430   F   F   F
 10.9955104474508119  7.3231487317156949 11.0553347132913373   F   F   F
  9.8959594027057314  2.9793981505618441 10.5101286616690430   F   F   F
  9.8959594027057296 15.8691792430115601 11.0553347132913373   F   F   F
  8.7964083579606491  6.4154562668050179 11.1730992204417525   F   F   F
 10.9955104474508119 10.6177361969470336 10.6278931688194582   F   F   F
  7.6968573132155687 14.9614867781008858 11.1730992204417525   F   F   F
 12.0950614921958941  2.0717056856511631 10.6278931688194582   F   F   F
 10.9955104474508119 14.3465470416871526 12.3616484129783561   T   T   T
  8.7964083579606491 10.1442671115451315 12.9068544646006504   T   T   T
 12.0950614921958959  5.8005165303912865 12.3616484129783544   T   T   T
  9.8959594027057296  1.5982366002492625 12.9068544646006504   T   T   T
 10.9955104474508119  4.1602204910228977 13.6832278821107991   T   T   T
  8.7964083579606491  8.3625004211649205 13.1380218304885013   T   T   T
  9.8959594027057314 12.7062510023187709 13.6832278821107991   T   T   T
  7.6968573132155669 16.9085309324607884 13.1380218304885013   T   T   T
 10.9955104474508101 11.8083699638813791 12.6909528681582202   T   T   T
  8.7964083579606491  7.6060900337393571 13.2361589197805145   T   T   T
 12.0950614921958923  3.2623394525855063 12.6909528681582202   T   T   T
  7.6968573132155678 16.1521205450352241 13.2361589197805145   T   T   T
 10.9955104474508119  6.6983975688286801 13.3539234269309297   T   T   T
  8.7964083579606491 10.9006774989706958 12.8087173753086390   T   T   T
  9.8959594027057296 15.2444280801245462 13.3539234269309297   T   T   T
  9.8959594027057314  2.3546469876748253 12.8087173753086372   T   T   T
  8.7964083579606491 14.6294883437108165 14.5424726194675333   T   T   T
 10.9955104474508119 10.4272084135687955 15.0876786710898276   T   T   T
  9.8959594027057296  6.0834578324149478 14.5424726194675316   T   T   T
 12.0950614921958923  1.8811779022729251 15.0876786710898294   T   T   T
  8.7964083579606509  4.4431617930465608 15.8640520885999763   T   T   T
 10.9955104474508119  8.6454417231885810 15.3188460369776820   T   T   T
  7.6968573132155687 12.9891923043424349 15.8640520885999727   T   T   T
 12.0950614921958923  0.0994112118927064 15.3188460369776802   T   T   T
  8.7964083579606491 12.0913112659050412 14.8717770746473974   T   T   T
 10.9955104474508119  7.8890313357630193 15.4169831262696952   T   T   T
  9.8959594027057296  3.5452807546091685 14.8717770746473974   T   T   T
  9.8959594027057296 16.4350618470588863 15.4169831262696935   T   T   T
  8.7964083579606491  6.9813388708523414 15.5347476334201087   T   T   T
 10.9955104474508119 11.1836188009943580 14.9895415817978144   T   T   T
  7.6968573132155669 15.5273693821482102 15.5347476334201087   T   T   T
 12.0950614921958923  2.6375882896984875 14.9895415817978144   T   T   T
  8.7964083579606509 30.8727254602315710  8.0000000000000000   F   F   F
  6.5973062684704882 26.6704455300895518  8.5452060516222943   F   F   F
  9.8959594027057314 22.3266949489357032  8.0000000000000000   F   F   F
  7.6968573132155687 18.1244150187936803  8.5452060516222943   F   F   F
  8.7964083579606509 20.6863989095673162  9.3215794691324412   F   F   F
  6.5973062684704873 24.8886788397093390  8.7763734175101469   F   F   F
  7.6968573132155687 29.2324294208631912  9.3215794691324412   F   F   F
  5.4977552237254059 33.4347093510052105  8.7763734175101451   F   F   F
  8.7964083579606509 28.3345483824257940  8.3293044551798641   F   F   F
  6.5973062684704864 24.1322684522837747  8.8745105068021584   F   F   F
  9.8959594027057314 19.7885178711299261  8.3293044551798641   F   F   F
  5.4977552237254059 32.6782989635796426  8.8745105068021584   F   F   F
  8.7964083579606509 23.2245759873730968  8.9922750139525753   F   F   F
  6.5973062684704873 27.4268559175151125  8.4470689623302810   F   F   F
  7.6968573132155687 31.7706064986689682  8.9922750139525753   F   F   F
  7.6968573132155687 18.8808254062192447  8.4470689623302810   F   F   F
  6.5973062684704864 31.1556667622552368 10.1808242064891772   F   F   F
  8.7964083579606509 26.9533868321132140 10.7260302581114715   F   F   F
  7.6968573132155687 22.6096362509593689 10.1808242064891772   F   F   F
  9.8959594027057314 18.4073563208173425 10.7260302581114715   F   F   F
  6.5973062684704873 20.9693402115909784 11.5024036756216184   F   F   F
  8.7964083579606509 25.1716201417330012 10.9571976239993241   F   F   F
  5.4977552237254059 29.5153707228868498 11.5024036756216184   F   F   F
  7.6968573132155678 33.7176506530288691 10.9571976239993241   F   F   F
  6.5973062684704864 28.6174896844494597 10.5101286616690430   F   F   F
  8.7964083579606509 24.4152097543074369 11.0553347132913373   F   F   F
  7.6968573132155687 20.0714591731535883 10.5101286616690430   F   F   F
  7.6968573132155669 32.9612402656033012 11.0553347132913373   F   F   F
  6.5973062684704864 23.5075172893967590 11.1730992204417525   F   F   F
  8.7964083579606509 27.7097972195387783 10.6278931688194582   F   F   F
  5.4977552237254059 32.0535478006926269 11.1730992204417525   F   F   F
  9.8959594027057314 19.1637667082429068 10.6278931688194582   F   F   F
  8.7964083579606491 31.4386080642788954 12.3616484129783561   T   T   T
  6.5973062684704864 27.2363281341368761 12.9068544646006504   T   T   T
  9.8959594027057314 22.8925775529830275 12.3616484129783544   T   T   T
  7.6968573132155669 18.6902976228410047 12.9068544646006504   T   T   T
  8.7964083579606509 21.2522815136146406 13.6832278821107991   T   T   T
  6.5973062684704873 25.4545614437566634 13.1380218304885013   T   T   T
  7.6968573132155687 29.7983120249105156 13.6832278821107991   T   T   T
  5.4977552237254042 34.0005919550525277 13.1380218304885013   T   T   T
  8.7964083579606474 28.9004309864731219 12.6909528681582202   T   T   T
  6.5973062684704864 24.6981510563310991 13.2361589197805145   T   T   T
  9.8959594027057296 20.3544004751772505 12.6909528681582202   T   T   T
  5.4977552237254050 33.2441815676269670 13.2361589197805145   T   T   T
  8.7964083579606491 23.7904585914204247 13.3539234269309297   T   T   T
  6.5973062684704864 27.9927385215624369 12.8087173753086390   T   T   T
  7.6968573132155669 32.3364891027162855 13.3539234269309297   T   T   T
  7.6968573132155678 19.4467080102665690 12.8087173753086372   T   T   T
  6.5973062684704855 31.7215493663025612 14.5424726194675333   T   T   T
  8.7964083579606491 27.5192694361605383 15.0876786710898276   T   T   T
  7.6968573132155669 23.1755188550066897 14.5424726194675316   T   T   T
  9.8959594027057314 18.9732389248646669 15.0876786710898294   T   T   T
  6.5973062684704873 21.5352228156383028 15.8640520885999763   T   T   T
  8.7964083579606474 25.7375027457803256 15.3188460369776820   T   T   T
  5.4977552237254059 30.0812533269341777 15.8640520885999727   T   T   T
  9.8959594027057296 17.1914722344844506 15.3188460369776802   T   T   T
  6.5973062684704873 29.1833722884967841 14.8717770746473974   T   T   T
  8.7964083579606491 24.9810923583547613 15.4169831262696952   T   T   T
  7.6968573132155669 20.6373417772009127 14.8717770746473974   T   T   T
  7.6968573132155669 33.5271228696506256 15.4169831262696935   T   T   T
  6.5973062684704855 24.0733998934440834 15.5347476334201087   T   T   T
  8.7964083579606491 28.2756798235861027 14.9895415817978144   T   T   T
  5.4977552237254042 32.6194304047399513 15.5347476334201087   T   T   T
  9.8959594027057314 19.7296493122902312 14.9895415817978144   T   T   T
  6.5973062684704882 47.9647864828233139  8.0000000000000000   F   F   F
  4.3982041789803255 43.7625065526812946  8.5452060516222943   F   F   F
  7.6968573132155687 39.4187559715274460  8.0000000000000000   F   F   F
  5.4977552237254059 35.2164760413854268  8.5452060516222943   F   F   F
  6.5973062684704882 37.7784599321590591  9.3215794691324412   F   F   F
  4.3982041789803246 41.9807398623010783  8.7763734175101469   F   F   F
  5.4977552237254059 46.3244904434549341  9.3215794691324412   F   F   F
  3.2986531342352432 50.5267703735969462  8.7763734175101451   F   F   F
  6.5973062684704882 45.4266094050175369  8.3293044551798641   F   F   F
  4.3982041789803237 41.2243294748755176  8.8745105068021584   F   F   F
  7.6968573132155687 36.8805788937216690  8.3293044551798641   F   F   F
  3.2986531342352432 49.7703599861713855  8.8745105068021584   F   F   F
  6.5973062684704873 40.3166370099648361  8.9922750139525753   F   F   F
  4.3982041789803246 44.5189169401068554  8.4470689623302810   F   F   F
  5.4977552237254059 48.8626675212607111  8.9922750139525753   F   F   F
  5.4977552237254059 35.9728864288109875  8.4470689623302810   F   F   F
  4.3982041789803237 48.2477277848469797 10.1808242064891772   F   F   F
  6.5973062684704873 44.0454478547049604 10.7260302581114715   F   F   F
  5.4977552237254059 39.7016972735511118 10.1808242064891772   F   F   F
  7.6968573132155687 35.4994173434090854 10.7260302581114715   F   F   F
  4.3982041789803246 38.0614012341827248 11.5024036756216184   F   F   F
  6.5973062684704873 42.2636811643247441 10.9571976239993241   F   F   F
  3.2986531342352428 46.6074317454785927 11.5024036756216184   F   F   F
  5.4977552237254050 50.8097116756206120 10.9571976239993241   F   F   F
  4.3982041789803237 45.7095507070412026 10.5101286616690430   F   F   F
  6.5973062684704873 41.5072707768991833 11.0553347132913373   F   F   F
  5.4977552237254059 37.1635201957453276 10.5101286616690430   F   F   F
  5.4977552237254042 50.0533012881950441 11.0553347132913373   F   F   F
  4.3982041789803237 40.5995783119885019 11.1730992204417525   F   F   F
  6.5973062684704873 44.8018582421305211 10.6278931688194582   F   F   F
  3.2986531342352428 49.1456088232843697 11.1730992204417525   F   F   F
  7.6968573132155687 36.2558277308346462 10.6278931688194582   F   F   F
  6.5973062684704864 48.5306690868706383 12.3616484129783561   T   T   T
  4.3982041789803237 44.3283891567286190 12.9068544646006504   T   T   T
  7.6968573132155695 39.9846385755747704 12.3616484129783544   T   T   T
  5.4977552237254042 35.7823586454327511 12.9068544646006504   T   T   T
  6.5973062684704873 38.3443425362063834 13.6832278821107991   T   T   T
  4.3982041789803246 42.5466224663484098 13.1380218304885013   T   T   T
  5.4977552237254059 46.8903730475022584 13.6832278821107991   T   T   T
  3.2986531342352414 51.0926529776442777 13.1380218304885013   T   T   T
  6.5973062684704846 45.9924920090648612 12.6909528681582202   T   T   T
  4.3982041789803237 41.7902120789228420 13.2361589197805145   T   T   T
  7.6968573132155669 37.4464614977689934 12.6909528681582202   T   T   T
  3.2986531342352423 50.3362425902187098 13.2361589197805145   T   T   T
  6.5973062684704864 40.8825196140121676 13.3539234269309297   T   T   T
  4.3982041789803237 45.0847995441541798 12.8087173753086390   T   T   T
  5.4977552237254042 49.4285501253080355 13.3539234269309297   T   T   T
  5.4977552237254050 36.5387690328583119 12.8087173753086372   T   T   T
  4.3982041789803228 48.8136103888943040 14.5424726194675333   T   T   T
  6.5973062684704864 44.6113304587522777 15.0876786710898276   T   T   T
  5.4977552237254042 40.2675798775984362 14.5424726194675316   T   T   T
  7.6968573132155678 36.0652999474564098 15.0876786710898294   T   T   T
  4.3982041789803246 38.6272838382300492 15.8640520885999763   T   T   T
  6.5973062684704855 42.8295637683720685 15.3188460369776820   T   T   T
  3.2986531342352432 47.1733143495259242 15.8640520885999727   T   T   T
  7.6968573132155669 34.2835332570761935 15.3188460369776802   T   T   T
  4.3982041789803246 46.2754333110885270 14.8717770746473974   T   T   T
  6.5973062684704864 42.0731533809465077 15.4169831262696952   T   T   T
  5.4977552237254042 37.7294027997926520 14.8717770746473974   T   T   T
  5.4977552237254042 50.6191838922423756 15.4169831262696935   T   T   T
  4.3982041789803228 41.1654609160358262 15.5347476334201087   T   T   T
  6.5973062684704864 45.3677408461778455 14.9895415817978144   T   T   T
  3.2986531342352419 49.7114914273316941 15.5347476334201087   T   T   T
  7.6968573132155678 36.8217103348819705 14.9895415817978144   T   T   T
