Ti Ni C  O  Ir
 1.0000000000000000
    10.5600000000000005    0.0000000000000000    0.0000000000000006
     5.2800000000000011   12.3199999999999985    0.0000000000000008
     0.0000000000000000    0.0000000000000000   35.5499999999999972
 Ti  Ni  C   O   Ir 
  48  84  32  32   4
Selective dynamics
Cartesian
  4.4000000000000012  1.5399999999999994 22.4799999999999933   T   T   T
  7.0400000000000009  3.0799999999999992 22.4799999999999933   T   T   T
  9.6800000000000033  4.6199999999999983 22.4799999999999933   T   T   T
  9.6800000000000015  1.5400000000000005 22.4799999999999933   T   T   T
  1.7600000000000005  3.0799999999999996 22.4799999999999933   T   T   T
  4.4000000000000012  4.6200000000000001 22.4799999999999933   T   T   T
  7.0400000000000000  6.1599999999999993 22.4799999999999933   T   T   T
  9.6800000000000033  7.6999999999999993 22.4799999999999933   T   T   T
 12.3200000000000038  9.2399999999999984 22.4799999999999933   T   T   T
 12.3200000000000003  6.1599999999999984 22.4799999999999933   T   T   T
  4.4000000000000004  7.6999999999999993 22.4799999999999933   T   T   T
  7.0400000000000027  9.2400000000000020 22.4799999999999933   T   T   T
  9.6800000000000033 10.7799999999999994 22.4799999999999933   T   T   T
  7.0400000000000000  0.0000000000000003 22.4799999999999933   T   T   T
 14.9600000000000026 10.7799999999999994 22.4799999999999933   T   T   T
  1.7600000000000007  0.0000000000000000 22.4799999999999933   T   T   T
  6.1600000000000019  1.5399999999999994 20.4799999999999933   T   T   T
  8.8000000000000025  3.0799999999999987 20.4799999999999933   T   T   T
 11.4400000000000013  4.6200000000000010 20.4799999999999933   T   T   T
  0.8800000000000002  1.5399999999999998 20.4799999999999933   T   T   T
  3.5200000000000005  3.0799999999999996 20.4799999999999933   T   T   T
  6.1600000000000019  4.6199999999999992 20.4799999999999933   T   T   T
  8.8000000000000007  6.1599999999999993 20.4799999999999933   T   T   T
 11.4400000000000031  7.6999999999999993 20.4799999999999933   T   T   T
 14.0800000000000036  9.2400000000000020 20.4799999999999933   T   T   T
  3.5200000000000009  6.1599999999999993 20.4799999999999933   T   T   T
  6.1600000000000019  7.7000000000000002 20.4799999999999933   T   T   T
  8.8000000000000025  9.2400000000000002 20.4799999999999933   T   T   T
 11.4400000000000013 10.7800000000000011 20.4799999999999933   T   T   T
  8.8000000000000007  0.0000000000000000 20.4799999999999933   T   T   T
  6.1600000000000019 10.7799999999999994 20.4799999999999933   T   T   T
  3.5200000000000005  0.0000000000000000 20.4799999999999933   T   T   T
  5.2800000000000002  0.0000000000000000 18.4799999999999933   T   T   T
  7.9200000000000017  1.5399999999999998 18.4799999999999933   T   T   T
 10.5600000000000023  3.0799999999999987 18.4799999999999933   T   T   T
  0.0000000000000000  0.0000000000000000 18.4799999999999933   T   T   T
  2.6400000000000001  1.5399999999999998 18.4799999999999933   T   T   T
  5.2800000000000002  3.0799999999999996 18.4799999999999933   T   T   T
  7.9200000000000008  4.6200000000000010 18.4799999999999933   T   T   T
 10.5600000000000005  6.1599999999999993 18.4799999999999933   T   T   T
 13.2000000000000011  7.6999999999999993 18.4799999999999933   T   T   T
  2.6400000000000006  4.6200000000000001 18.4799999999999933   T   T   T
  5.2800000000000011  6.1599999999999993 18.4799999999999933   T   T   T
  7.9200000000000017  7.6999999999999993 18.4799999999999933   T   T   T
 10.5600000000000023  9.2399999999999984 18.4799999999999933   T   T   T
 13.2000000000000011 10.7799999999999994 18.4799999999999933   T   T   T
  5.2800000000000011  9.2400000000000002 18.4799999999999933   T   T   T
  7.9200000000000017 10.7799999999999994 18.4799999999999933   T   T   T
  7.0400000000000000  0.0000000000000000 13.5199999999999996   T   T   T
  8.8000000000000007  1.7600000000000000 13.5199999999999996   T   T   T
 10.5600000000000041  3.5199999999999996 13.5199999999999996   T   T   T
 12.3200000000000021  5.2799999999999985 13.5200000000000014   T   T   T
  3.5200000000000000  0.0000000000000000 13.5199999999999996   T   T   T
  5.2800000000000020  1.7599999999999998 13.5199999999999996   T   T   T
  7.0400000000000000  3.5199999999999996 13.5199999999999996   T   T   T
  8.8000000000000007  5.2799999999999985 13.5199999999999996   T   T   T
 10.5599999999999987  7.0399999999999991 13.5200000000000014   T   T   T
 12.3200000000000021  8.7999999999999972 13.5200000000000014   T   T   T
 14.0800000000000018 10.5599999999999969 13.5200000000000014   T   T   T
  0.0000000000000000  0.0000000000000000 13.5199999999999996   T   T   T
  1.7600000000000002  1.7599999999999998 13.5199999999999996   T   T   T
  3.5200000000000005  3.5199999999999996 13.5199999999999996   T   T   T
  5.2799999999999994  5.2799999999999985 13.5199999999999996   T   T   T
  7.0400000000000009  7.0399999999999991 13.5199999999999996   T   T   T
  8.8000000000000007  8.7999999999999972 13.5200000000000014   T   T   T
 10.5599999999999987 10.5599999999999969 13.5200000000000014   T   T   T
  3.5200000000000005  7.0399999999999991 13.5199999999999996   T   T   T
  5.2800000000000002  8.7999999999999972 13.5199999999999996   T   T   T
  7.0400000000000009 10.5599999999999969 13.5199999999999996   T   T   T
  7.0400000000000000  1.7599999999999998 15.2799999999999994   T   T   T
  8.8000000000000007  3.5199999999999996 15.2799999999999994   T   T   T
 10.5600000000000041  5.2799999999999985 15.2799999999999994   T   T   T
 12.3200000000000021  7.0399999999999991 15.2800000000000011   T   T   T
  3.5200000000000000  1.7599999999999998 15.2799999999999994   T   T   T
  5.2800000000000011  3.5199999999999996 15.2799999999999994   T   T   T
  7.0400000000000009  5.2799999999999985 15.2799999999999994   T   T   T
  8.8000000000000007  7.0399999999999991 15.2799999999999994   T   T   T
 10.5600000000000005  8.7999999999999989 15.2800000000000011   T   T   T
 12.3200000000000021 10.5599999999999969 15.2800000000000011   T   T   T
 14.0799999999999983 12.3199999999999967 15.2800000000000011   T   T   T
 10.5600000000000005  1.7600000000000000 15.2799999999999994   T   T   T
  1.7600000000000002  3.5199999999999996 15.2799999999999994   T   T   T
  3.5200000000000005  5.2799999999999994 15.2799999999999994   T   T   T
  5.2800000000000002  7.0399999999999991 15.2799999999999994   T   T   T
  7.0400000000000009  8.7999999999999989 15.2799999999999994   T   T   T
  8.8000000000000007 10.5599999999999969 15.2800000000000011   T   T   T
 10.5599999999999987 12.3199999999999967 15.2800000000000011   T   T   T
 14.0800000000000018  8.7999999999999989 15.2800000000000011   T   T   T
  5.2800000000000002 10.5599999999999969 15.2799999999999994   T   T   T
  7.0400000000000009 12.3199999999999967 15.2800000000000011   T   T   T
  7.0400000000000000  0.0000000000000000 10.0000000000000000   F   F   F
  8.8000000000000007  1.7600000000000000 10.0000000000000000   F   F   F
 10.5600000000000041  3.5199999999999996 10.0000000000000000   F   F   F
 12.3200000000000021  5.2799999999999985 10.0000000000000018   F   F   F
  3.5200000000000000  0.0000000000000000 10.0000000000000000   F   F   F
  5.2800000000000020  1.7599999999999998 10.0000000000000000   F   F   F
  7.0400000000000000  3.5199999999999996 10.0000000000000000   F   F   F
  8.8000000000000007  5.2799999999999985 10.0000000000000000   F   F   F
 10.5599999999999987  7.0399999999999991 10.0000000000000018   F   F   F
 12.3200000000000021  8.7999999999999972 10.0000000000000018   F   F   F
 14.0800000000000018 10.5599999999999969 10.0000000000000018   F   F   F
  0.0000000000000000  0.0000000000000000 10.0000000000000000   F   F   F
  1.7600000000000002  1.7599999999999998 10.0000000000000000   F   F   F
  3.5200000000000005  3.5199999999999996 10.0000000000000000   F   F   F
  5.2799999999999994  5.2799999999999985 10.0000000000000000   F   F   F
  7.0400000000000009  7.0399999999999991 10.0000000000000000   F   F   F
  8.8000000000000007  8.7999999999999972 10.0000000000000018   F   F   F
 10.5599999999999987 10.5599999999999969 10.0000000000000018   F   F   F
  3.5200000000000005  7.0399999999999991 10.0000000000000000   F   F   F
  5.2800000000000002  8.7999999999999972 10.0000000000000000   F   F   F
  7.0400000000000009 10.5599999999999969 10.0000000000000000   F   F   F
  7.0400000000000000  1.7599999999999998 11.7599999999999998   F   F   F
  8.8000000000000007  3.5199999999999996 11.7599999999999998   F   F   F
 10.5600000000000041  5.2799999999999985 11.7599999999999998   F   F   F
 12.3200000000000021  7.0399999999999991 11.7600000000000016   F   F   F
  3.5200000000000000  1.7599999999999998 11.7599999999999998   F   F   F
  5.2800000000000011  3.5199999999999996 11.7599999999999998   F   F   F
  7.0400000000000009  5.2799999999999985 11.7599999999999998   F   F   F
  8.8000000000000007  7.0399999999999991 11.7599999999999998   F   F   F
 10.5600000000000005  8.7999999999999989 11.7600000000000016   F   F   F
 12.3200000000000021 10.5599999999999969 11.7600000000000016   F   F   F
 14.0799999999999983 12.3199999999999967 11.7600000000000016   F   F   F
 10.5600000000000005  1.7600000000000000 11.7599999999999998   F   F   F
  1.7600000000000002  3.5199999999999996 11.7599999999999998   F   F   F
  3.5200000000000005  5.2799999999999994 11.7599999999999998   F   F   F
  5.2800000000000002  7.0399999999999991 11.7599999999999998   F   F   F
  7.0400000000000009  8.7999999999999989 11.7599999999999998   F   F   F
  8.8000000000000007 10.5599999999999969 11.7600000000000016   F   F   F
 10.5599999999999987 12.3199999999999967 11.7600000000000016   F   F   F
 14.0800000000000018  8.7999999999999989 11.7600000000000016   F   F   F
  5.2800000000000002 10.5599999999999969 11.7599999999999998   F   F   F
  7.0400000000000009 12.3199999999999967 11.7600000000000016   F   F   F
  5.2800000000000002  0.0000000000000000 21.4799999999999933   T   T   T
  7.9200000000000017  1.5399999999999998 21.4799999999999933   T   T   T
 10.5600000000000023  3.0799999999999987 21.4799999999999933   T   T   T
  0.0000000000000000  0.0000000000000000 21.4799999999999933   T   T   T
  2.6400000000000001  1.5399999999999998 21.4799999999999933   T   T   T
  5.2800000000000002  3.0799999999999996 21.4799999999999933   T   T   T
  7.9200000000000008  4.6200000000000010 21.4799999999999933   T   T   T
 10.5600000000000005  6.1599999999999993 21.4799999999999933   T   T   T
 13.2000000000000011  7.6999999999999993 21.4799999999999933   T   T   T
  2.6400000000000006  4.6200000000000001 21.4799999999999933   T   T   T
  5.2800000000000011  6.1599999999999993 21.4799999999999933   T   T   T
  7.9200000000000017  7.6999999999999993 21.4799999999999933   T   T   T
 10.5600000000000023  9.2399999999999984 21.4799999999999933   T   T   T
 13.2000000000000011 10.7799999999999994 21.4799999999999933   T   T   T
  5.2800000000000011  9.2400000000000002 21.4799999999999933   T   T   T
  7.9200000000000017 10.7799999999999994 21.4799999999999933   T   T   T
  4.4000000000000012  1.5399999999999994 19.4799999999999969   T   T   T
  7.0400000000000009  3.0799999999999992 19.4799999999999969   T   T   T
  9.6800000000000033  4.6199999999999983 19.4799999999999969   T   T   T
  9.6800000000000015  1.5400000000000005 19.4799999999999969   T   T   T
  1.7600000000000005  3.0799999999999996 19.4799999999999969   T   T   T
  4.4000000000000012  4.6200000000000001 19.4799999999999969   T   T   T
  7.0400000000000000  6.1599999999999993 19.4799999999999969   T   T   T
  9.6800000000000033  7.6999999999999993 19.4799999999999969   T   T   T
 12.3200000000000038  9.2399999999999984 19.4799999999999969   T   T   T
 12.3200000000000003  6.1599999999999984 19.4799999999999969   T   T   T
  4.4000000000000004  7.6999999999999993 19.4799999999999969   T   T   T
  7.0400000000000027  9.2400000000000020 19.4799999999999969   T   T   T
  9.6800000000000033 10.7799999999999994 19.4799999999999969   T   T   T
  7.0400000000000000  0.0000000000000003 19.4799999999999969   T   T   T
 14.9600000000000026 10.7799999999999994 19.4799999999999969   T   T   T
  1.7600000000000007  0.0000000000000000 19.4799999999999969   T   T   T
  6.1600000000000019  1.5399999999999994 23.4799999999999969   T   T   T
  8.8000000000000025  3.0799999999999987 23.4799999999999969   T   T   T
 11.4400000000000013  4.6200000000000010 23.4799999999999969   T   T   T
  0.8800000000000002  1.5399999999999998 23.4799999999999969   T   T   T
  3.5200000000000005  3.0799999999999996 23.4799999999999969   T   T   T
  6.1600000000000019  4.6199999999999992 23.4799999999999969   T   T   T
  8.8000000000000007  6.1599999999999993 23.4799999999999969   T   T   T
 11.4400000000000031  7.6999999999999993 23.4799999999999969   T   T   T
 14.0800000000000036  9.2400000000000020 23.4799999999999969   T   T   T
  3.5200000000000009  6.1599999999999993 23.4799999999999969   T   T   T
  6.1600000000000019  7.7000000000000002 23.4799999999999969   T   T   T
  8.8000000000000025  9.2400000000000002 23.4799999999999969   T   T   T
 11.4400000000000013 10.7800000000000011 23.4799999999999969   T   T   T
  8.8000000000000007  0.0000000000000000 23.4799999999999969   T   T   T
  6.1600000000000019 10.7799999999999994 23.4799999999999969   T   T   T
  3.5200000000000005  0.0000000000000000 23.4799999999999969   T   T   T
  6.1600000000000019  1.5399999999999994 17.4799999999999969   T   T   T
  8.8000000000000025  3.0799999999999987 17.4799999999999969   T   T   T
 11.4400000000000013  4.6200000000000010 17.4799999999999969   T   T   T
  0.8800000000000002  1.5399999999999998 17.4799999999999969   T   T   T
  3.5200000000000005  3.0799999999999996 17.4799999999999969   T   T   T
  6.1600000000000019  4.6199999999999992 17.4799999999999969   T   T   T
  8.8000000000000007  6.1599999999999993 17.4799999999999969   T   T   T
 11.4400000000000031  7.6999999999999993 17.4799999999999969   T   T   T
 14.0800000000000036  9.2400000000000020 17.4799999999999969   T   T   T
  3.5200000000000009  6.1599999999999993 17.4799999999999969   T   T   T
  6.1600000000000019  7.7000000000000002 17.4799999999999969   T   T   T
  8.8000000000000025  9.2400000000000002 17.4799999999999969   T   T   T
 11.4400000000000013 10.7800000000000011 17.4799999999999969   T   T   T
  8.8000000000000007  0.0000000000000000 17.4799999999999969   T   T   T
  6.1600000000000019 10.7799999999999994 17.4799999999999969   T   T   T
  3.5200000000000005  0.0000000000000000 17.4799999999999969   T   T   T
  6.4146938775510218  4.5199999999999934 25.5499999999999972   T   T   T
  6.4146938775510218  6.9199999999999937 25.5499999999999972   T   T   T
  8.8146938775510222  4.5199999999999934 25.5499999999999972   T   T   T
  8.8146938775510222  6.9199999999999937 25.5499999999999972   T   T   T
