Mo C  Mo C  Mo C  Mo C  Mo C  Mo C  Mo C  Mo C  Mo C  Mo C  Mo C  Mo C  Mo C  Mo C  Mo C  Mo C  Mo C  Mo C  Mo C  Mo C  Mo C  Mo C  Mo C  Mo C  Mo C  Mo C  Mo C  Mo C  Mo C  Mo C  Mo C  Mo C  Mo C  Mo C  Mo C  Mo C 
 1.0000000000000000
    21.1012075483845223    0.0000000000000000    0.0000000000000000
    11.5507391432989301   20.9361718144330737    0.0000000000000000
     0.0000000000000000    0.0000000000000000   26.9029401228992171
 Mo  C   Mo  C   Mo  C   Mo  C   Mo  C   Mo  C   Mo  C   Mo  C   Mo  C   Mo  C   Mo  C   Mo  C   Mo  C   Mo  C   Mo  C   Mo  C   Mo  C   Mo  C   Mo  C   Mo  C   Mo  C   Mo  C   Mo  C   Mo  C   Mo  C   Mo  C   Mo  C   Mo  C   Mo  C   Mo  C   Mo  C   Mo  C   Mo  C   Mo  C   Mo  C   Mo  C  
   4   2   4   2   4   2   4   2   4   2   4   2   4   2   4   1   4   2   4   2   4   2   4   2   4   2   4   2   4   2   4   2   4   2   4   2   4   2   4   2   4   2   4   2   4   2   4   2   4   2   4   2   4   2   4   2   4   2   4   2   4   2   4   2   4   2   4   2   4   2   4   2
Selective dynamics
Cartesian
  0.4878526566024939  0.0470805375479220  8.4845751165732963   F   F   F
  6.5458831928590122  5.1752737671977682  8.7874345644316101   F   F   F
  3.0290152681282585  3.8174616479638881  7.9999999999999991   F   F   F
  4.0047205813332489  1.4048926567818030  9.2720096810049064   F   F   F
  6.0711742541865963  1.4409551413587820  8.9691502331465962   F   F   F
  2.5543063294558430  2.9032143466875748  9.8171566871498683   F   F   F
  7.5215885060640026  5.2694348422936130 11.5131695951564126   F   F   F
  2.6956368117593676  3.4189041337991024 11.8160290430147263   F   F   F
  6.2125047364901222  2.0610920145652214 11.0285944785831163   F   F   F
  4.0047205813332489  6.6272469615274945 12.3006041595880227   F   F   F
  6.0711742541865954  6.6633094461044733 11.9977447117297089   F   F   F
  5.7377957978177063  1.1468447132889081 12.8457511657329846   F   F   F
  3.6713421249643559  3.5130652088949468 14.5417640737395253   T   T   T
  5.8791262801212314  1.6625345004004357 14.8446235215978426   T   T   T
  2.3622583553904763  0.3047223811665549 14.0571889571662290   T   T   T
  7.1882100496951100  4.8708773281288273 15.3291986381711354   T   T   T
  9.2546637225484591  4.9069398127058061 15.0263391903128287   T   T   T
  5.7377957978177054  6.3691990180346005 15.8743456443160973   T   T   T
  6.8548315933262218  1.7566955754962794 17.5703585523226451   T   T   T
  5.8791262801212305  6.8848888051461268 17.8732180001809553   T   T   T
  9.3959942048519842  5.5270766859122462 17.0857834357493417   T   T   T
  3.3379636685954668  3.1145076947301615 18.3577931167542516   T   T   T
  5.4044173414488119  3.1505701793071408 18.0549336688959379   T   T   T
  8.9212852661795701  4.6128293846359325 18.9029401228992171   T   T   T
  4.3380990377021380  7.0258044756922793  8.4845751165732963   F   F   F
 10.3961295739586568 12.1539977053421246  8.7874345644316101   F   F   F
  6.8792616492279022 10.7961855861082459  7.9999999999999991   F   F   F
  7.8549669624328926  8.3836165949261598  9.2720096810049064   F   F   F
  9.9214206352862391  8.4196790795031387  8.9691502331465962   F   F   F
  6.4045527105554871  9.8819382848319322  9.8171566871498683   F   F   F
 11.3718348871636472 12.2481587804379703 11.5131695951564126   F   F   F
  6.5458831928590113 10.3976280719434602 11.8160290430147263   F   F   F
 10.0627511175897659  9.0398159527095778 11.0285944785831163   F   F   F
  7.8549669624328926 13.6059708996718527 12.3006041595880227   F   F   F
  9.9214206352862391 13.6420333842488297 11.9977447117297089   F   F   F
  9.5880421789173500  8.1255686514332659 12.8457511657329846   F   F   F
  7.5215885060639991 10.4917891470393041 14.5417640737395253   T   T   T
  9.7293726612208751  8.6412584385447921 14.8446235215978426   T   T   T
  6.2125047364901196  7.2834463193109125 14.0571889571662290   T   T   T
 11.0384564307947528 11.8496012662731847 15.3291986381711354   T   T   T
 13.1049101036481019 11.8856637508501635 15.0263391903128287   T   T   T
  9.5880421789173482 13.3479229561789587 15.8743456443160973   T   T   T
 10.7050779744258655  8.7354195136406361 17.5703585523226451   T   T   T
  9.7293726612208751 13.8636127432904850 17.8732180001809553   T   T   T
 13.2462405859516288 12.5058006240566044 17.0857834357493417   T   T   T
  7.1882100496951100 10.0932316328745184 18.3577931167542516   T   T   T
  9.2546637225484556 10.1292941174514972 18.0549336688959379   T   T   T
  8.1883454188017808 14.0045284138366366  8.4845751165732963   F   F   F
 14.2463759550582996 19.1327216434864837  8.7874345644316101   F   F   F
 10.7295080303275459 17.7749095242526032  7.9999999999999991   F   F   F
 11.7052133435325363 15.3623405330705172  9.2720096810049064   F   F   F
 13.7716670163858836 15.3984030176474960  8.9691502331465962   F   F   F
 10.2547990916551299 16.8606622229762877  9.8171566871498683   F   F   F
 15.2220812682632900 19.2268827185823277 11.5131695951564126   F   F   F
 10.3961295739586550 17.3763520100878175 11.8160290430147263   F   F   F
 13.9129974986894105 16.0185398908539369 11.0285944785831163   F   F   F
 11.7052133435325363 20.5846948378162082 12.3006041595880227   F   F   F
 13.7716670163858836 20.6207573223931888 11.9977447117297089   F   F   F
 13.4382885600169928 15.1042925895776232 12.8457511657329846   F   F   F
 11.3718348871636437 17.4705130851836614 14.5417640737395253   T   T   T
 13.5796190423205196 15.6199823766891512 14.8446235215978426   T   T   T
 10.0627511175897641 14.2621702574552689 14.0571889571662290   T   T   T
 14.8887028118943974 18.8283252044175420 15.3291986381711354   T   T   T
 16.9551564847477465 18.8643876889945190 15.0263391903128287   T   T   T
 13.4382885600169928 20.3266468943233143 15.8743456443160973   T   T   T
 14.5553243555255101 15.7141434517849934 17.5703585523226451   T   T   T
 13.5796190423205179 20.8423366814348405 17.8732180001809553   T   T   T
 17.0964869670512698 19.4845245622009600 17.0857834357493417   T   T   T
 11.0384564307947546 17.0719555710188757 18.3577931167542516   T   T   T
 13.1049101036480984 17.1080180555958563 18.0549336688959379   T   T   T
 16.6217780283788557 18.5702772609246480 18.9029401228992171   T   T   T
  7.5215885060640018  0.0470805375479220  8.4845751165732963   F   F   F
 13.5796190423205196  5.1752737671977682  8.7874345644316101   F   F   F
 10.0627511175897659  3.8174616479638881  7.9999999999999991   F   F   F
 11.0384564307947564  1.4048926567818030  9.2720096810049064   F   F   F
 13.1049101036481037  1.4409551413587820  8.9691502331465962   F   F   F
  9.5880421789173500  2.9032143466875748  9.8171566871498683   F   F   F
 14.5553243555255101  5.2694348422936130 11.5131695951564126   F   F   F
  9.7293726612208751  3.4189041337991024 11.8160290430147263   F   F   F
 13.2462405859516288  2.0610920145652214 11.0285944785831163   F   F   F
 11.0384564307947564  6.6272469615274945 12.3006041595880227   F   F   F
 13.1049101036481019  6.6633094461044733 11.9977447117297089   F   F   F
 12.7715316472792146  1.1468447132889081 12.8457511657329846   F   F   F
 10.7050779744258637  3.5130652088949468 14.5417640737395253   T   T   T
 12.9128621295827379  1.6625345004004357 14.8446235215978426   T   T   T
  9.3959942048519842  0.3047223811665549 14.0571889571662290   T   T   T
 14.2219458991566174  4.8708773281288273 15.3291986381711354   T   T   T
 16.2883995720099648  4.9069398127058061 15.0263391903128287   T   T   T
 12.7715316472792129  6.3691990180346005 15.8743456443160973   T   T   T
 13.8885674427877284  1.7566955754962794 17.5703585523226451   T   T   T
 12.9128621295827379  6.8848888051461268 17.8732180001809553   T   T   T
 16.4297300543134916  5.5270766859122462 17.0857834357493417   T   T   T
 10.3716995180569747  3.1145076947301615 18.3577931167542516   T   T   T
 12.4381531909103202  3.1505701793071408 18.0549336688959379   T   T   T
 15.9550211156410775  4.6128293846359325 18.9029401228992171   T   T   T
 11.3718348871636454  7.0258044756922793  8.4845751165732963   F   F   F
 17.4298654234201642 12.1539977053421246  8.7874345644316101   F   F   F
 13.9129974986894105 10.7961855861082459  7.9999999999999991   F   F   F
 14.8887028118944009  8.3836165949261598  9.2720096810049064   F   F   F
 16.9551564847477465  8.4196790795031387  8.9691502331465962   F   F   F
 13.4382885600169946  9.8819382848319322  9.8171566871498683   F   F   F
 18.4055707366251546 12.2481587804379703 11.5131695951564126   F   F   F
 13.5796190423205196 10.3976280719434602 11.8160290430147263   F   F   F
 17.0964869670512734  9.0398159527095778 11.0285944785831163   F   F   F
 14.8887028118944009 13.6059708996718527 12.3006041595880227   F   F   F
 16.9551564847477465 13.6420333842488297 11.9977447117297089   F   F   F
 16.6217780283788592  8.1255686514332659 12.8457511657329846   F   F   F
 14.5553243555255083 10.4917891470393041 14.5417640737395253   T   T   T
 16.7631085106823825  8.6412584385447921 14.8446235215978426   T   T   T
 13.2462405859516288  7.2834463193109125 14.0571889571662290   T   T   T
 18.0721922802562602 11.8496012662731847 15.3291986381711354   T   T   T
 20.1386459531096094 11.8856637508501635 15.0263391903128287   T   T   T
 16.6217780283788557 13.3479229561789587 15.8743456443160973   T   T   T
 17.7388138238873729  8.7354195136406361 17.5703585523226451   T   T   T
 16.7631085106823825 13.8636127432904850 17.8732180001809553   T   T   T
 20.2799764354131362 12.5058006240566044 17.0857834357493417   T   T   T
 14.2219458991566192 10.0932316328745184 18.3577931167542516   T   T   T
 16.2883995720099648 10.1292941174514972 18.0549336688959379   T   T   T
 19.8052674967407221 11.5915533227802889 18.9029401228992171   T   T   T
 15.2220812682632882 14.0045284138366366  8.4845751165732963   F   F   F
 21.2801118045198052 19.1327216434864837  8.7874345644316101   F   F   F
 17.7632438797890515 17.7749095242526032  7.9999999999999991   F   F   F
 18.7389491929940419 15.3623405330705172  9.2720096810049064   F   F   F
 20.8054028658473911 15.3984030176474960  8.9691502331465962   F   F   F
 17.2885349411166374 16.8606622229762877  9.8171566871498683   F   F   F
 22.2558171177247957 19.2268827185823277 11.5131695951564126   F   F   F
 17.4298654234201607 17.3763520100878175 11.8160290430147263   F   F   F
 20.9467333481509179 16.0185398908539369 11.0285944785831163   F   F   F
 18.7389491929940419 20.5846948378162082 12.3006041595880227   F   F   F
 20.8054028658473911 20.6207573223931888 11.9977447117297089   F   F   F
 20.4720244094785002 15.1042925895776232 12.8457511657329846   F   F   F
 18.4055707366251511 17.4705130851836614 14.5417640737395253   T   T   T
 20.6133548917820271 15.6199823766891512 14.8446235215978426   T   T   T
 17.0964869670512698 14.2621702574552689 14.0571889571662290   T   T   T
 21.9224386613559048 18.8283252044175420 15.3291986381711354   T   T   T
 23.9888923342092539 18.8643876889945190 15.0263391903128287   T   T   T
 20.4720244094785002 20.3266468943233143 15.8743456443160973   T   T   T
 21.5890602049870175 15.7141434517849934 17.5703585523226451   T   T   T
 20.6133548917820235 20.8423366814348405 17.8732180001809553   T   T   T
 24.1302228165127772 19.4845245622009600 17.0857834357493417   T   T   T
 18.0721922802562602 17.0719555710188757 18.3577931167542516   T   T   T
 20.1386459531096058 17.1080180555958563 18.0549336688959379   T   T   T
 23.6555138778403631 18.5702772609246480 18.9029401228992171   T   T   T
 14.5553243555255083  0.0470805375479220  8.4845751165732963   F   F   F
 20.6133548917820271  5.1752737671977682  8.7874345644316101   F   F   F
 17.0964869670512734  3.8174616479638881  7.9999999999999991   F   F   F
 18.0721922802562638  1.4048926567818030  9.2720096810049064   F   F   F
 20.1386459531096094  1.4409551413587820  8.9691502331465962   F   F   F
 16.6217780283788592  2.9032143466875748  9.8171566871498683   F   F   F
 21.5890602049870175  5.2694348422936130 11.5131695951564126   F   F   F
 16.7631085106823825  3.4189041337991024 11.8160290430147263   F   F   F
 20.2799764354131362  2.0610920145652214 11.0285944785831163   F   F   F
 18.0721922802562638  6.6272469615274945 12.3006041595880227   F   F   F
 20.1386459531096094  6.6633094461044733 11.9977447117297089   F   F   F
 19.8052674967407221  1.1468447132889081 12.8457511657329846   F   F   F
 17.7388138238873694  3.5130652088949468 14.5417640737395253   T   T   T
 19.9465979790442454  1.6625345004004357 14.8446235215978426   T   T   T
 16.4297300543134916  0.3047223811665549 14.0571889571662290   T   T   T
 21.2556817486181231  4.8708773281288273 15.3291986381711354   T   T   T
 23.3221354214714722  4.9069398127058061 15.0263391903128287   T   T   T
 19.8052674967407185  6.3691990180346005 15.8743456443160973   T   T   T
 20.9223032922492358  1.7566955754962794 17.5703585523226451   T   T   T
 19.9465979790442454  6.8848888051461268 17.8732180001809553   T   T   T
 23.4634659037749991  5.5270766859122462 17.0857834357493417   T   T   T
 17.4054353675184821  3.1145076947301615 18.3577931167542516   T   T   T
 19.4718890403718277  3.1505701793071408 18.0549336688959379   T   T   T
 22.9887569651025849  4.6128293846359325 18.9029401228992171   T   T   T
 18.4055707366251546  7.0258044756922793  8.4845751165732963   F   F   F
 24.4636012728816716 12.1539977053421246  8.7874345644316101   F   F   F
 20.9467333481509179 10.7961855861082459  7.9999999999999991   F   F   F
 21.9224386613559084  8.3836165949261598  9.2720096810049064   F   F   F
 23.9888923342092539  8.4196790795031387  8.9691502331465962   F   F   F
 20.4720244094785038  9.8819382848319322  9.8171566871498683   F   F   F
 25.4393065860866621 12.2481587804379703 11.5131695951564126   F   F   F
 20.6133548917820271 10.3976280719434602 11.8160290430147263   F   F   F
 24.1302228165127808  9.0398159527095778 11.0285944785831163   F   F   F
 21.9224386613559084 13.6059708996718527 12.3006041595880227   F   F   F
 23.9888923342092539 13.6420333842488297 11.9977447117297089   F   F   F
 23.6555138778403666  8.1255686514332659 12.8457511657329846   F   F   F
 21.5890602049870139 10.4917891470393041 14.5417640737395253   T   T   T
 23.7968443601438899  8.6412584385447921 14.8446235215978426   T   T   T
 20.2799764354131362  7.2834463193109125 14.0571889571662290   T   T   T
 25.1059281297177677 11.8496012662731847 15.3291986381711354   T   T   T
 27.1723818025711168 11.8856637508501635 15.0263391903128287   T   T   T
 23.6555138778403631 13.3479229561789587 15.8743456443160973   T   T   T
 24.7725496733488804  8.7354195136406361 17.5703585523226451   T   T   T
 23.7968443601438899 13.8636127432904850 17.8732180001809553   T   T   T
 27.3137122848746436 12.5058006240566044 17.0857834357493417   T   T   T
 21.2556817486181266 10.0932316328745184 18.3577931167542516   T   T   T
 23.3221354214714722 10.1292941174514972 18.0549336688959379   T   T   T
 26.8390033462022295 11.5915533227802889 18.9029401228992171   T   T   T
 22.2558171177247992 14.0045284138366366  8.4845751165732963   F   F   F
 28.3138476539813162 19.1327216434864837  8.7874345644316101   F   F   F
 24.7969797292505625 17.7749095242526032  7.9999999999999991   F   F   F
 25.7726850424555529 15.3623405330705172  9.2720096810049064   F   F   F
 27.8391387153088985 15.3984030176474960  8.9691502331465962   F   F   F
 24.3222707905781483 16.8606622229762877  9.8171566871498683   F   F   F
 29.2895529671863066 19.2268827185823277 11.5131695951564126   F   F   F
 24.4636012728816716 17.3763520100878175 11.8160290430147263   F   F   F
 27.9804691976124253 16.0185398908539369 11.0285944785831163   F   F   F
 25.7726850424555529 20.5846948378162082 12.3006041595880227   F   F   F
 27.8391387153088985 20.6207573223931888 11.9977447117297089   F   F   F
 27.5057602589400112 15.1042925895776232 12.8457511657329846   F   F   F
 25.4393065860866585 17.4705130851836614 14.5417640737395253   T   T   T
 27.6470907412435345 15.6199823766891512 14.8446235215978426   T   T   T
 24.1302228165127808 14.2621702574552689 14.0571889571662290   T   T   T
 28.9561745108174122 18.8283252044175420 15.3291986381711354   T   T   T
 31.0226281836707614 18.8643876889945190 15.0263391903128287   T   T   T
 27.5057602589400076 20.3266468943233143 15.8743456443160973   T   T   T
 28.6227960544485249 15.7141434517849934 17.5703585523226451   T   T   T
 27.6470907412435345 20.8423366814348405 17.8732180001809553   T   T   T
 31.1639586659742882 19.4845245622009600 17.0857834357493417   T   T   T
 25.1059281297177712 17.0719555710188757 18.3577931167542516   T   T   T
 27.1723818025711168 17.1080180555958563 18.0549336688959379   T   T   T
 30.6892497273018741 18.5702772609246480 18.9029401228992171   T   T   T
