Ni B  Mo Ni Mo
 1.0000000000000000
    12.4450793488832367    0.0000000000000000    0.0000000000000008
     5.9736380874639492   16.9253079144812055    0.0000000000000011
     0.0000000000000000    0.0000000000000000   35.2424999999999926
 Ni  B   Mo  Ni  Mo 
 136  96   3   1  92
Selective dynamics
Cartesian
  5.4758349135086197 13.4406856967938957 13.5199999999999978   T   T   T
  7.4670476093299385 14.9340952186598876 13.5199999999999978   T   T   T
  9.4582603051512564 16.4275047405258725 13.5199999999999978   T   T   T
  2.9868190437319746  8.4626539572405992 13.5199999999999960   T   T   T
  4.9780317395532911  9.9560634791065876 13.5199999999999960   T   T   T
  6.9692444353746090 11.4494730009725814 13.5199999999999978   T   T   T
  8.9604571311959234 12.9428825228385644 13.5199999999999978   T   T   T
 10.9516698270172430 14.4362920447045529 13.5199999999999978   T   T   T
 12.9428825228385591 15.9297015665705430 13.5199999999999978   T   T   T
  2.4890158697766456  4.9780317395532938 13.5199999999999960   T   T   T
  4.4802285655979617  6.4714412614192822 13.5199999999999960   T   T   T
  6.4714412614192796  7.9648507832852715 13.5199999999999960   T   T   T
  8.4626539572405957  9.4582603051512582 13.5199999999999978   T   T   T
 10.4538666530619153 10.9516698270172501 13.5199999999999978   T   T   T
 12.4450793488832296 12.4450793488832367 13.5199999999999978   T   T   T
 14.4362920447045475 13.9384888707492234 13.5199999999999978   T   T   T
 16.4275047405258618 15.4318983926152136 13.5199999999999978   T   T   T
  0.0000000000000000  0.0000000000000000 13.5199999999999960   T   T   T
  1.9912126958213170  1.4934095218659886 13.5199999999999960   T   T   T
  3.9824253916426340  2.9868190437319773 13.5199999999999960   T   T   T
  5.9736380874639510  4.4802285655979652 13.5199999999999960   T   T   T
  7.9648507832852680  5.9736380874639545 13.5199999999999960   T   T   T
  9.9560634791065858  7.4670476093299438 13.5199999999999978   T   T   T
 11.9472761749279019  8.9604571311959305 13.5199999999999978   T   T   T
 13.9384888707492198 10.4538666530619153 13.5199999999999978   T   T   T
 15.9297015665705359 11.9472761749279091 13.5199999999999978   T   T   T
  5.4758349135086224  0.9956063479106582 13.5199999999999960   T   T   T
  7.4670476093299385  2.4890158697766465 13.5199999999999960   T   T   T
  9.4582603051512528  3.9824253916426358 13.5199999999999960   T   T   T
 11.4494730009725743  5.4758349135086251 13.5199999999999978   T   T   T
 13.4406856967938921  6.9692444353746099 13.5199999999999978   T   T   T
  8.9604571311959251  0.4978031739553287 13.5199999999999960   T   T   T
 10.9516698270172448  1.9912126958213163 13.5199999999999960   T   T   T
 12.9428825228385644  3.4846222176873041 13.5199999999999978   T   T   T
  7.2181460223522746 13.1917841098162345 15.2800000000000011   T   T   T
  9.2093587181735899 14.6851936316822194 15.2800000000000011   T   T   T
 11.2005714139949077 16.1786031535482095 15.2800000000000011   T   T   T
  4.7291301525756282  8.2137523702629363 15.2799999999999994   T   T   T
  6.7203428483969434  9.7071618921289247 15.2799999999999994   T   T   T
  8.7115555442182604 11.2005714139949131 15.2800000000000011   T   T   T
 10.7027682400395783 12.6939809358608997 15.2800000000000011   T   T   T
 12.6939809358608926 14.1873904577268881 15.2800000000000011   T   T   T
 14.6851936316822140 15.6807999795928765 15.2800000000000011   T   T   T
  4.2313269786202987  4.7291301525756291 15.2799999999999994   T   T   T
  6.2225396744416148  6.2225396744416184 15.2799999999999994   T   T   T
  8.2137523702629309  7.7159491963076068 15.2799999999999994   T   T   T
 10.2049650660842506  9.2093587181735952 15.2800000000000011   T   T   T
 12.1961777619055649 10.7027682400395818 15.2800000000000011   T   T   T
 14.1873904577268846 12.1961777619055702 15.2800000000000011   T   T   T
 16.1786031535481953 13.6895872837715604 15.2800000000000011   T   T   T
  5.7247365004862818 15.1829968056375488 15.2800000000000011   T   T   T
  7.7159491963076006 16.6764063275035390 15.2800000000000011   T   T   T
  3.7335238046649692  1.2445079348883237 15.2799999999999994   T   T   T
  5.7247365004862871  2.7379174567543125 15.2799999999999994   T   T   T
  7.7159491963076032  4.2313269786203005 15.2799999999999994   T   T   T
  9.7071618921289211  5.7247365004862898 15.2799999999999994   T   T   T
 11.6983745879502372  7.2181460223522764 15.2800000000000011   T   T   T
 13.6895872837715551  8.7115555442182622 15.2800000000000011   T   T   T
 15.6807999795928694 10.2049650660842524 15.2800000000000011   T   T   T
  5.2269333265309506 11.6983745879502408 15.2799999999999994   T   T   T
  7.2181460223522746  0.7467047609329935 15.2799999999999994   T   T   T
  9.2093587181735916  2.2401142827989817 15.2799999999999994   T   T   T
 11.2005714139949042  3.7335238046649706 15.2799999999999994   T   T   T
 13.1917841098162256  5.2269333265309585 15.2800000000000011   T   T   T
  2.7379174567543076  6.7203428483969461 15.2799999999999994   T   T   T
 10.7027682400395783  0.2489015869776637 15.2799999999999994   T   T   T
 12.6939809358608962  1.7423111088436518 15.2799999999999994   T   T   T
  2.2401142827989795  3.2357206307096402 15.2799999999999994   T   T   T
  5.4758349135086197 13.4406856967938957 10.0000000000000000   F   F   F
  7.4670476093299385 14.9340952186598876 10.0000000000000000   F   F   F
  9.4582603051512564 16.4275047405258725 10.0000000000000000   F   F   F
  2.9868190437319746  8.4626539572405992  9.9999999999999982   F   F   F
  4.9780317395532911  9.9560634791065876  9.9999999999999982   F   F   F
  6.9692444353746090 11.4494730009725814 10.0000000000000000   F   F   F
  8.9604571311959234 12.9428825228385644 10.0000000000000000   F   F   F
 10.9516698270172430 14.4362920447045529 10.0000000000000000   F   F   F
 12.9428825228385591 15.9297015665705430 10.0000000000000000   F   F   F
  2.4890158697766456  4.9780317395532938  9.9999999999999982   F   F   F
  4.4802285655979617  6.4714412614192822  9.9999999999999982   F   F   F
  6.4714412614192796  7.9648507832852715  9.9999999999999982   F   F   F
  8.4626539572405957  9.4582603051512582 10.0000000000000000   F   F   F
 10.4538666530619153 10.9516698270172501 10.0000000000000000   F   F   F
 12.4450793488832296 12.4450793488832367 10.0000000000000000   F   F   F
 14.4362920447045475 13.9384888707492234 10.0000000000000000   F   F   F
 16.4275047405258618 15.4318983926152136 10.0000000000000000   F   F   F
  0.0000000000000000  0.0000000000000000  9.9999999999999982   F   F   F
  1.9912126958213170  1.4934095218659886  9.9999999999999982   F   F   F
  3.9824253916426340  2.9868190437319773  9.9999999999999982   F   F   F
  5.9736380874639510  4.4802285655979652  9.9999999999999982   F   F   F
  7.9648507832852680  5.9736380874639545  9.9999999999999982   F   F   F
  9.9560634791065858  7.4670476093299438 10.0000000000000000   F   F   F
 11.9472761749279019  8.9604571311959305 10.0000000000000000   F   F   F
 13.9384888707492198 10.4538666530619153 10.0000000000000000   F   F   F
 15.9297015665705359 11.9472761749279091 10.0000000000000000   F   F   F
  5.4758349135086224  0.9956063479106582  9.9999999999999982   F   F   F
  7.4670476093299385  2.4890158697766465  9.9999999999999982   F   F   F
  9.4582603051512528  3.9824253916426358  9.9999999999999982   F   F   F
 11.4494730009725743  5.4758349135086251 10.0000000000000000   F   F   F
 13.4406856967938921  6.9692444353746099 10.0000000000000000   F   F   F
  8.9604571311959251  0.4978031739553287  9.9999999999999982   F   F   F
 10.9516698270172448  1.9912126958213163  9.9999999999999982   F   F   F
 12.9428825228385644  3.4846222176873041 10.0000000000000000   F   F   F
  7.2181460223522746 13.1917841098162345 11.7599999999999998   F   F   F
  9.2093587181735899 14.6851936316822194 11.7599999999999998   F   F   F
 11.2005714139949077 16.1786031535482095 11.7599999999999998   F   F   F
  4.7291301525756282  8.2137523702629363 11.7599999999999980   F   F   F
  6.7203428483969434  9.7071618921289247 11.7599999999999980   F   F   F
  8.7115555442182604 11.2005714139949131 11.7599999999999998   F   F   F
 10.7027682400395783 12.6939809358608997 11.7599999999999998   F   F   F
 12.6939809358608926 14.1873904577268881 11.7599999999999998   F   F   F
 14.6851936316822140 15.6807999795928765 11.7599999999999998   F   F   F
  4.2313269786202987  4.7291301525756291 11.7599999999999980   F   F   F
  6.2225396744416148  6.2225396744416184 11.7599999999999980   F   F   F
  8.2137523702629309  7.7159491963076068 11.7599999999999980   F   F   F
 10.2049650660842506  9.2093587181735952 11.7599999999999998   F   F   F
 12.1961777619055649 10.7027682400395818 11.7599999999999998   F   F   F
 14.1873904577268846 12.1961777619055702 11.7599999999999998   F   F   F
 16.1786031535481953 13.6895872837715604 11.7599999999999998   F   F   F
  5.7247365004862818 15.1829968056375488 11.7599999999999998   F   F   F
  7.7159491963076006 16.6764063275035390 11.7599999999999998   F   F   F
  3.7335238046649692  1.2445079348883237 11.7599999999999980   F   F   F
  5.7247365004862871  2.7379174567543125 11.7599999999999980   F   F   F
  7.7159491963076032  4.2313269786203005 11.7599999999999980   F   F   F
  9.7071618921289211  5.7247365004862898 11.7599999999999980   F   F   F
 11.6983745879502372  7.2181460223522764 11.7599999999999998   F   F   F
 13.6895872837715551  8.7115555442182622 11.7599999999999998   F   F   F
 15.6807999795928694 10.2049650660842524 11.7599999999999998   F   F   F
  5.2269333265309506 11.6983745879502408 11.7599999999999980   F   F   F
  7.2181460223522746  0.7467047609329935 11.7599999999999980   F   F   F
  9.2093587181735916  2.2401142827989817 11.7599999999999980   F   F   F
 11.2005714139949042  3.7335238046649706 11.7599999999999980   F   F   F
 13.1917841098162256  5.2269333265309585 11.7599999999999998   F   F   F
  2.7379174567543076  6.7203428483969461 11.7599999999999980   F   F   F
 10.7027682400395783  0.2489015869776637 11.7599999999999980   F   F   F
 12.6939809358608962  1.7423111088436518 11.7599999999999980   F   F   F
  2.2401142827989795  3.2357206307096402 11.7599999999999980   F   F   F
 12.3460165172661203  6.7362725499635205 25.2424999999999926   T   T   T
  3.0122070056036976  6.7362725499635205 25.2424999999999926   T   T   T
  6.1234768428245054  6.7362725499635188 25.2424999999999926   T   T   T
  9.2347466800453120  6.7362725499635188 25.2424999999999926   T   T   T
  1.5187974837377096  2.5049455713432183 25.2424999999999926   T   T   T
  4.6300673209585179  2.5049455713432183 25.2424999999999926   T   T   T
  7.7413371581793253  2.5049455713432187 25.2424999999999926   T   T   T
 10.8526069954001336  2.5049455713432183 25.2424999999999926   T   T   T
 12.3574659902670962  5.9577083858973836 23.6899999999999977   T   T   T
  3.0236564786046705  5.9577083858973836 23.6899999999999977   T   T   T
  6.1349263158254796  5.9577083858973827 23.6899999999999977   T   T   T
  9.2461961530462862  5.9577083858973827 23.6899999999999977   T   T   T
 12.4196913870115146  1.7263814072770847 25.2424999999999926   T   T   T
  3.0858818753490875  1.7263814072770849 25.2424999999999926   T   T   T
  6.1971517125698963  1.7263814072770849 25.2424999999999926   T   T   T
  9.3084215497907046  1.7263814072770849 25.2424999999999926   T   T   T
 13.7772006423876920 15.1989265072041224 23.6899999999999977   T   T   T
 16.8884704796085039 15.1989265072041206 23.6899999999999977   T   T   T
  7.5546609679460754 15.1989265072041224 23.6899999999999977   T   T   T
 10.6659308051668837 15.1989265072041224 23.6899999999999977   T   T   T
 13.8508755121330829 10.1890353645176912 23.6899999999999977   T   T   T
  4.5170660004706562 10.1890353645176912 23.6899999999999977   T   T   T
  7.6283358376914645 10.1890353645176912 23.6899999999999977   T   T   T
 10.7396056749122728 10.1890353645176912 23.6899999999999977   T   T   T
 13.7886501153886698 14.4203623431379935 25.2424999999999926   T   T   T
 16.8999199526094763 14.4203623431379917 25.2424999999999926   T   T   T
  7.5661104409470479 14.4203623431379935 25.2424999999999926   T   T   T
 10.6773802781678562 14.4203623431379935 25.2424999999999926   T   T   T
 12.2837911205217054 10.9675995285838219 23.6899999999999977   T   T   T
 15.3950609577425119 10.9675995285838201 23.6899999999999977   T   T   T
  6.0612514460800888 10.9675995285838219 23.6899999999999977   T   T   T
  9.1725212833008953 10.9675995285838219 23.6899999999999977   T   T   T
 12.3460165172661220  6.7362725499635205 22.1374999999999957   T   T   T
  3.0122070056036967  6.7362725499635188 22.1374999999999957   T   T   T
  6.1234768428245054  6.7362725499635188 22.1374999999999957   T   T   T
  9.2347466800453137  6.7362725499635188 22.1374999999999957   T   T   T
  1.5187974837377101  2.5049455713432192 22.1374999999999957   T   T   T
  4.6300673209585188  2.5049455713432192 22.1374999999999957   T   T   T
  7.7413371581793271  2.5049455713432192 22.1375000000000028   T   T   T
 10.8526069954001336  2.5049455713432192 22.1374999999999957   T   T   T
 12.3574659902670962  5.9577083858973836 20.5849999999999937   T   T   T
  3.0236564786046705  5.9577083858973827 20.5849999999999937   T   T   T
  6.1349263158254805  5.9577083858973827 20.5850000000000009   T   T   T
  9.2461961530462862  5.9577083858973827 20.5849999999999937   T   T   T
 12.4196913870115146  1.7263814072770847 22.1374999999999957   T   T   T
  3.0858818753490880  1.7263814072770847 22.1374999999999957   T   T   T
  6.1971517125698954  1.7263814072770847 22.1374999999999957   T   T   T
  9.3084215497907046  1.7263814072770847 22.1374999999999957   T   T   T
 13.7772006423876920 15.1989265072041224 20.5850000000000009   T   T   T
 16.8884704796085039 15.1989265072041206 20.5850000000000009   T   T   T
  7.5546609679460763 15.1989265072041224 20.5850000000000009   T   T   T
 10.6659308051668837 15.1989265072041206 20.5849999999999937   T   T   T
 13.8508755121330829 10.1890353645176912 20.5850000000000009   T   T   T
  4.5170660004706571 10.1890353645176912 20.5850000000000009   T   T   T
  7.6283358376914663 10.1890353645176912 20.5850000000000009   T   T   T
 10.7396056749122728 10.1890353645176912 20.5849999999999937   T   T   T
 13.7886501153886698 14.4203623431379935 22.1374999999999957   T   T   T
 16.8999199526094763 14.4203623431379917 22.1374999999999957   T   T   T
  7.5661104409470497 14.4203623431379935 22.1375000000000028   T   T   T
 10.6773802781678562 14.4203623431379917 22.1374999999999957   T   T   T
 12.2837911205217054 10.9675995285838219 20.5849999999999937   T   T   T
 15.3950609577425119 10.9675995285838201 20.5850000000000009   T   T   T
  6.0612514460800906 10.9675995285838219 20.5850000000000009   T   T   T
  9.1725212833008953 10.9675995285838201 20.5849999999999937   T   T   T
 12.3460165172661220  6.7362725499635214 19.0324999999999989   T   T   T
  3.0122070056036980  6.7362725499635214 19.0324999999999989   T   T   T
  6.1234768428245054  6.7362725499635214 19.0324999999999989   T   T   T
  9.2347466800453137  6.7362725499635214 19.0324999999999989   T   T   T
  1.5187974837377110  2.5049455713432192 19.0324999999999989   T   T   T
  4.6300673209585188  2.5049455713432187 19.0325000000000060   T   T   T
  7.7413371581793271  2.5049455713432192 19.0324999999999989   T   T   T
 10.8526069954001336  2.5049455713432187 19.0324999999999989   T   T   T
 12.3574659902670998  5.9577083858973854 17.4799999999999969   T   T   T
  3.0236564786046705  5.9577083858973854 17.4799999999999969   T   T   T
  6.1349263158254779  5.9577083858973854 17.4799999999999969   T   T   T
  9.2461961530462862  5.9577083858973854 17.4799999999999969   T   T   T
 12.4196913870115146  1.7263814072770849 19.0324999999999989   T   T   T
  3.0858818753490875  1.7263814072770849 19.0324999999999989   T   T   T
  6.1971517125698963  1.7263814072770849 19.0324999999999989   T   T   T
  9.3084215497907046  1.7263814072770849 19.0324999999999989   T   T   T
 13.7772006423876974 15.1989265072041224 17.4799999999999969   T   T   T
 16.8884704796085039 15.1989265072041206 17.4799999999999969   T   T   T
  7.5546609679460763 15.1989265072041206 17.4799999999999969   T   T   T
 10.6659308051668837 15.1989265072041206 17.4799999999999969   T   T   T
 13.8508755121330864 10.1890353645176912 17.4799999999999969   T   T   T
  4.5170660004706571 10.1890353645176912 17.4800000000000040   T   T   T
  7.6283358376914663 10.1890353645176912 17.4799999999999969   T   T   T
 10.7396056749122728 10.1890353645176912 17.4799999999999969   T   T   T
 13.7886501153886698 14.4203623431379935 19.0324999999999989   T   T   T
 16.8999199526094763 14.4203623431379917 19.0324999999999989   T   T   T
  7.5661104409470488 14.4203623431379917 19.0324999999999989   T   T   T
 10.6773802781678562 14.4203623431379917 19.0324999999999989   T   T   T
 12.2837911205217054 10.9675995285838219 17.4799999999999969   T   T   T
 15.3950609577425155 10.9675995285838201 17.4799999999999969   T   T   T
  6.0612514460800888 10.9675995285838201 17.4799999999999969   T   T   T
  9.1725212833008953 10.9675995285838201 17.4799999999999969   T   T   T
 12.3074367712845856  9.3596952767081092 25.2424999999999926   T   T   T
 15.4187066085053939  9.3596952767081074 25.2424999999999926   T   T   T
  6.0848970968429672  9.3596952767081092 25.2424999999999926   T   T   T
  9.1961669340637755  9.3596952767081092 25.2424999999999926   T   T   T
 13.9252970866394072  5.1283682980878060 25.2424999999999926   T   T   T
  4.5914875749769797  5.1283682980878060 25.2424999999999926   T   T   T
  7.7027574121977871  5.1283682980878043 25.2424999999999926   T   T   T
 10.8140272494185972  5.1283682980878060 25.2424999999999926   T   T   T
 12.3960457362486363  3.3342856591527990 23.6899999999999977   T   T   T
  3.0622362245862096  3.3342856591527990 23.6899999999999977   T   T   T
  6.1735060618070170  3.3342856591527994 23.6899999999999977   T   T   T
  9.2847758990278262  3.3342856591527990 23.6899999999999977   T   T   T
 12.2093695460153846 16.0282665950137044 25.2424999999999926   T   T   T
 15.3206393832361911 16.0282665950137009 25.2424999999999926   T   T   T
  5.9868298715737653 16.0282665950137044 25.2424999999999926   T   T   T
  9.0980997087945727 16.0282665950137044 25.2424999999999926   T   T   T
  1.5424431345005885  0.8970413194675041 23.6899999999999977   T   T   T
  4.6537129717213963  0.8970413194675042 23.6899999999999977   T   T   T
  7.7649828089422064  0.8970413194675041 23.6899999999999977   T   T   T
 10.8762526461630102  0.8970413194675041 23.6899999999999977   T   T   T
 13.8894552581146211  7.5656126377730990 23.6899999999999977   T   T   T
  4.5556457464521953  7.5656126377730990 23.6899999999999977   T   T   T
  7.6669155836730027  7.5656126377730981 23.6899999999999977   T   T   T
 10.7781854208938110  7.5656126377730990 23.6899999999999977   T   T   T
 13.8272298613702027 11.7969396163933986 25.2424999999999926   T   T   T
  4.4934203497077778 11.7969396163933986 25.2424999999999926   T   T   T
  7.6046901869285861 11.7969396163933986 25.2424999999999926   T   T   T
 10.7159600241493962 11.7969396163933986 25.2424999999999926   T   T   T
 12.2452113745401654 13.5910222553284132 23.6899999999999977   T   T   T
 15.3564812117609719 13.5910222553284115 23.6899999999999977   T   T   T
  6.0226717000985497 13.5910222553284132 23.6899999999999977   T   T   T
  9.1339415373193553 13.5910222553284132 23.6899999999999977   T   T   T
 12.3074367712845856  9.3596952767081092 22.1374999999999957   T   T   T
 15.4187066085053939  9.3596952767081074 22.1374999999999957   T   T   T
  6.0848970968429690  9.3596952767081092 22.1374999999999957   T   T   T
  9.1961669340637755  9.3596952767081092 22.1374999999999957   T   T   T
 13.9252970866394072  5.1283682980878060 22.1374999999999957   T   T   T
  4.5914875749769788  5.1283682980878051 22.1374999999999957   T   T   T
  7.7027574121977889  5.1283682980878043 22.1375000000000028   T   T   T
 10.8140272494185989  5.1283682980878060 22.1374999999999957   T   T   T
 12.3960457362486363  3.3342856591527990 20.5849999999999937   T   T   T
  3.0622362245862100  3.3342856591527990 20.5849999999999937   T   T   T
  6.1735060618070188  3.3342856591527990 20.5850000000000009   T   T   T
  9.2847758990278280  3.3342856591527990 20.5849999999999937   T   T   T
 12.2093695460153846 16.0282665950137044 22.1374999999999957   T   T   T
 15.3206393832361911 16.0282665950137009 22.1374999999999957   T   T   T
  5.9868298715737671 16.0282665950137044 22.1374999999999957   T   T   T
  9.0980997087945745 16.0282665950137044 22.1374999999999957   T   T   T
  1.5424431345005889  0.8970413194675044 20.5849999999999937   T   T   T
  4.6537129717213972  0.8970413194675044 20.5850000000000009   T   T   T
  7.7649828089422055  0.8970413194675043 20.5850000000000009   T   T   T
 10.8762526461630120  0.8970413194675044 20.5849999999999937   T   T   T
 13.8894552581146193  7.5656126377730981 20.5850000000000009   T   T   T
  4.5556457464521962  7.5656126377730990 20.5850000000000009   T   T   T
  7.6669155836730045  7.5656126377730981 20.5850000000000009   T   T   T
 10.7781854208938128  7.5656126377730990 20.5849999999999937   T   T   T
 13.8272298613702027 11.7969396163933986 22.1374999999999957   T   T   T
  4.4934203497077778 11.7969396163933986 22.1374999999999957   T   T   T
  7.6046901869285879 11.7969396163933986 22.1375000000000028   T   T   T
 10.7159600241493962 11.7969396163933968 22.1374999999999957   T   T   T
 12.2452113745401672 13.5910222553284132 20.5849999999999937   T   T   T
 15.3564812117609719 13.5910222553284115 20.5850000000000009   T   T   T
  6.0226717000985506 13.5910222553284132 20.5850000000000009   T   T   T
  9.1339415373193589 13.5910222553284132 20.5849999999999937   T   T   T
 12.3074367712845856  9.3596952767081092 19.0324999999999989   T   T   T
 15.4187066085053939  9.3596952767081074 19.0324999999999989   T   T   T
  6.0848970968429690  9.3596952767081092 19.0324999999999989   T   T   T
  9.1961669340637755  9.3596952767081092 19.0324999999999989   T   T   T
 13.9252970866394072  5.1283682980878069 19.0324999999999989   T   T   T
  4.5914875749769797  5.1283682980878069 19.0325000000000060   T   T   T
  7.7027574121977880  5.1283682980878060 19.0324999999999989   T   T   T
 10.8140272494185989  5.1283682980878078 19.0324999999999989   T   T   T
 12.3960457362486398  3.3342856591527990 17.4799999999999969   T   T   T
  3.0622362245862100  3.3342856591527990 17.4799999999999969   T   T   T
  6.1735060618070188  3.3342856591527990 17.4799999999999969   T   T   T
  9.2847758990278280  3.3342856591527985 17.4799999999999969   T   T   T
 12.2093695460153846 16.0282665950137044 19.0324999999999989   T   T   T
 15.3206393832361911 16.0282665950137009 19.0324999999999989   T   T   T
  5.9868298715737671 16.0282665950137044 19.0324999999999989   T   T   T
  9.0980997087945727 16.0282665950137044 19.0324999999999989   T   T   T
  1.5424431345005898  0.8970413194675046 17.4799999999999969   T   T   T
  4.6537129717213972  0.8970413194675046 17.4800000000000040   T   T   T
  7.7649828089422055  0.8970413194675046 17.4799999999999969   T   T   T
 10.8762526461630120  0.8970413194675046 17.4799999999999969   T   T   T
 13.8894552581146229  7.5656126377730999 17.4799999999999969   T   T   T
  4.5556457464521953  7.5656126377730999 17.4800000000000040   T   T   T
  7.6669155836730045  7.5656126377730990 17.4799999999999969   T   T   T
 10.7781854208938146  7.5656126377731008 17.4799999999999969   T   T   T
 13.8272298613702063 11.7969396163933986 19.0324999999999989   T   T   T
  4.4934203497077787 11.7969396163933986 19.0325000000000060   T   T   T
  7.6046901869285879 11.7969396163933968 19.0324999999999989   T   T   T
 10.7159600241493962 11.7969396163933968 19.0324999999999989   T   T   T
 12.2452113745401672 13.5910222553284132 17.4799999999999969   T   T   T
 15.3564812117609755 13.5910222553284115 17.4799999999999969   T   T   T
  6.0226717000985497 13.5910222553284132 17.4799999999999969   T   T   T
  9.1339415373193589 13.5910222553284132 17.4799999999999969   T   T   T
