Ni Mo N  Ag
 1.0000000000000000
     8.9742743439233017    0.0000000000000000    0.0000000000000005
     0.6903287956864116   33.4791673455874061    0.0000000000000021
     0.0000000000000000    0.0000000000000000   22.5968188426424561
 Ni  Mo  N   Ag 
 224 144  72   4
Selective dynamics
Cartesian
  2.0709863870592238  1.9928075800944893  4.1271444658968566   F   F   F
  4.4871371719616508  2.5906498541228360  4.1271444658968557   F   F   F
  6.9032879568640784  3.1884921281511822  4.1271444658968575   F   F   F
  9.3194387417665059  3.7863344021795284  4.1271444658968566   F   F   F
  2.7613151827456321  4.3841766762078747  4.1271444658968557   F   F   F
  5.1774659676480583  4.9820189502362213  4.1271444658968566   F   F   F
  7.5936167525504841  5.5798612242645680  4.1271444658968566   F   F   F
 10.0097675374529125  6.1777034982929155  4.1271444658968566   F   F   F
  3.4516439784320401  6.7755457723212604  4.1271444658968566   F   F   F
  5.8677947633344676  7.3733880463496071  4.1271444658968566   F   F   F
  8.2839455482368951  7.9712303203779538  4.1271444658968575   F   F   F
 10.7000963331393244  8.5690725944063004  4.1271444658968566   F   F   F
  4.1419727741184484  9.1669148684346471  4.1271444658968566   F   F   F
  6.5581235590208751  9.7647571424629920  4.1271444658968592   F   F   F
  8.9742743439233035 10.3625994164913404  4.1271444658968566   F   F   F
  2.4161507849024280 10.9604416905196889  4.1271444658968592   F   F   F
  4.8323015698048533 11.5582839645480338  4.1271444658968566   F   F   F
  7.2484523547072826 12.1561262385763786  4.1271444658968566   F   F   F
  9.6646031396097101 12.7539685126047253  4.1271444658968583   F   F   F
  3.1064795805888363 13.3518107866330737  4.1271444658968566   F   F   F
  5.5226303654912634 13.9496530606614204  4.1271444658968566   F   F   F
  7.9387811503936927 14.5474953346897653  4.1271444658968575   F   F   F
 10.3549319352961202 15.1453376087181120  4.1271444658968566   F   F   F
  3.7968083762752447 15.7431798827464586  4.1271444658968566   F   F   F
  6.2129591611776718 16.3410221567748053  4.1271444658968575   F   F   F
  8.6291099460800993 16.9388644308031502  4.1271444658968575   F   F   F
 11.0452607309825250 17.5367067048314951  4.1271444658968583   F   F   F
  4.4871371719616526 18.1345489788598435  4.1271444658968548   F   F   F
  6.9032879568640801 18.7323912528881920  4.1271444658968575   F   F   F
  9.3194387417665041 19.3302335269165440  4.1271444658968566   F   F   F
  2.7613151827456335 19.9280758009448888  4.1271444658968601   F   F   F
  5.1774659676480601 20.5259180749732337  4.1271444658968575   F   F   F
  7.5936167525504867 21.1237603490015786  4.1271444658968575   F   F   F
 10.0097675374529125 21.7216026230299342  4.1271444658968601   F   F   F
  3.4516439784320410 22.3194448970582684  4.1271444658968575   F   F   F
  5.8677947633344694 22.9172871710866097  4.1271444658968575   F   F   F
  8.2839455482368951 23.5151294451149617  4.1271444658968566   F   F   F
 10.7000963331393208 24.1129717191433102  4.1271444658968575   F   F   F
  4.1419727741184476 24.7108139931716551  4.1271444658968575   F   F   F
  6.5581235590208768 25.3086562672000035  4.1271444658968601   F   F   F
  8.9742743439232999 25.9064985412283484  4.1271444658968575   F   F   F
 11.3904251288257292 26.5043408152567004  4.1271444658968583   F   F   F
  4.8323015698048586 27.1021830892850417  4.1271444658968566   F   F   F
  7.2484523547072852 27.7000253633133866  4.1271444658968548   F   F   F
  9.6646031396097136 28.2978676373417386  4.1271444658968557   F   F   F
  3.1064795805888386 28.8957099113700870  4.1271444658968601   F   F   F
  5.5226303654912652 29.4935521853984284  4.1271444658968575   F   F   F
  7.9387811503936927 30.0913944594267768  4.1271444658968583   F   F   F
 10.3549319352961220 30.6892367334551253  4.1271444658968583   F   F   F
  3.7968083762752465 31.2870790074834701  4.1271444658968575   F   F   F
  6.2129591611776718 31.8849212815118150  4.1271444658968583   F   F   F
  8.6291099460801011 32.4827635555401599  4.1271444658968583   F   F   F
 11.0452607309825268 33.0806058295685048  4.1271444658968619   F   F   F
  4.4871371719616553 33.6784481035968568  4.1271444658968583   F   F   F
  6.9032879568640801 34.2762903776252017  4.1271444658968557   F   F   F
  9.3194387417665094 34.8741326516535466  4.1271444658968619   F   F   F
  3.1064795805888354  2.9892113701417342  6.1594174134443396   F   F   F
  5.5226303654912625  3.5870536441700813  6.1594174134443405   F   F   F
  7.9387811503936874  4.1848959181984275  6.1594174134443405   F   F   F
 10.3549319352961131  4.7827381922267742  6.1594174134443396   F   F   F
  3.7968083762752434  5.3805804662551200  6.1594174134443405   F   F   F
  6.2129591611776718  5.9784227402834658  6.1594174134443396   F   F   F
  8.6291099460800975  6.5762650143118124  6.1594174134443396   F   F   F
 11.0452607309825268  7.1741072883401600  6.1594174134443405   F   F   F
  4.4871371719616508  7.7719495623685058  6.1594174134443405   F   F   F
  6.9032879568640793  8.3697918363968515  6.1594174134443396   F   F   F
  9.3194387417665059  8.9676341104252000  6.1594174134443396   F   F   F
 11.7355895266689316  9.5654763844535484  6.1594174134443396   F   F   F
  5.1774659676480601 10.1633186584818898  6.1594174134443405   F   F   F
  7.5936167525504850 10.7611609325102364  6.1594174134443405   F   F   F
 10.0097675374529143 11.3590032065385849  6.1594174134443396   F   F   F
  3.4516439784320401 11.9568454805669351  6.1594174134443396   F   F   F
  5.8677947633344658 12.5546877545952817  6.1594174134443405   F   F   F
  8.2839455482368933 13.1525300286236249  6.1594174134443405   F   F   F
 10.7000963331393226 13.7503723026519715  6.1594174134443405   F   F   F
  4.1419727741184484 14.3482145766803164  6.1594174134443396   F   F   F
  6.5581235590208751 14.9460568507086631  6.1594174134443405   F   F   F
  8.9742743439233017 15.5438991247370115  6.1594174134443413   F   F   F
 11.3904251288257292 16.1417413987653546  6.1594174134443413   F   F   F
  4.8323015698048550 16.7395836727937031  6.1594174134443396   F   F   F
  7.2484523547072834 17.3374259468220515  6.1594174134443405   F   F   F
  9.6646031396097101 17.9352682208504000  6.1594174134443405   F   F   F
 12.0807539245121376 18.5331104948787448  6.1594174134443413   F   F   F
  5.5226303654912616 19.1309527689070933  6.1594174134443413   F   F   F
  7.9387811503936936 19.7287950429354346  6.1594174134443405   F   F   F
 10.3549319352961149 20.3266373169637831  6.1594174134443405   F   F   F
  3.7968083762752451 20.9244795909921280  6.1594174134443413   F   F   F
  6.2129591611776718 21.5223218650204693  6.1594174134443405   F   F   F
  8.6291099460800993 22.1201641390488213  6.1594174134443405   F   F   F
 11.0452607309825286 22.7180064130771697  6.1594174134443413   F   F   F
  4.4871371719616517 23.3158486871055146  6.1594174134443431   F   F   F
  6.9032879568640784 23.9136909611338595  6.1594174134443396   F   F   F
  9.3194387417665077 24.5115332351622115  6.1594174134443405   F   F   F
 11.7355895266689316 25.1093755091905493  6.1594174134443422   F   F   F
  5.1774659676480601 25.7072177832189048  6.1594174134443413   F   F   F
  7.5936167525504885 26.3050600572472497  6.1594174134443413   F   F   F
 10.0097675374529143 26.9029023312756017  6.1594174134443422   F   F   F
 12.4259183223553418 27.5007446053039466  6.1594174134443440   F   F   F
  5.8677947633344703 28.0985868793322879  6.1594174134443405   F   F   F
  8.2839455482368969 28.6964291533606364  6.1594174134443413   F   F   F
 10.7000963331393226 29.2942714273889884  6.1594174134443422   F   F   F
  4.1419727741184458 29.8921137014173333  6.1594174134443413   F   F   F
  6.5581235590208751 30.4899559754456675  6.1594174134443413   F   F   F
  8.9742743439232999 31.0877982494740195  6.1594174134443422   F   F   F
 11.3904251288257328 31.6856405235023715  6.1594174134443440   F   F   F
  4.8323015698048577 32.2834827975307164  6.1594174134443440   F   F   F
  7.2484523547072870 32.8813250715590613  6.1594174134443413   F   F   F
  9.6646031396097136 33.4791673455873990  6.1594174134443440   F   F   F
 12.0807539245121394 34.0770096196157510  6.1594174134443467   F   F   F
  5.5226303654912661 34.6748518936440959  6.1594174134443413   F   F   F
  7.9387811503936883 35.2726941676724550  6.1594174134443422   F   F   F
 10.3549319352961184 35.8705364417007857  6.1594174134443440   F   F   F
  4.1419727741184476  3.9856151601889787  8.1916903609918226   T   T   T
  6.5581235590208742  4.5834574342173244  8.1916903609918226   T   T   T
  8.9742743439233017  5.1812997082456720  8.1916903609918226   T   T   T
 11.3904251288257292  5.7791419822740178  8.1916903609918243   T   T   T
  4.8323015698048550  6.3769842563023644  8.1916903609918226   T   T   T
  7.2484523547072826  6.9748265303307111  8.1916903609918226   T   T   T
  9.6646031396097065  7.5726688043590586  8.1916903609918243   T   T   T
 12.0807539245121358  8.1705110783874044  8.1916903609918243   T   T   T
  5.5226303654912643  8.7683533524157493  8.1916903609918226   T   T   T
  7.9387811503936891  9.3661956264440960  8.1916903609918243   T   T   T
 10.3549319352961167  9.9640379004724426  8.1916903609918243   T   T   T
 12.7710827201985460 10.5618801745007893  8.1916903609918243   T   T   T
  6.2129591611776691 11.1597224485291378  8.1916903609918243   T   T   T
  8.6291099460800975 11.7575647225574844  8.1916903609918243   T   T   T
 11.0452607309825286 12.3554069965858329  8.1916903609918243   T   T   T
  4.4871371719616526 12.9532492706141760  8.1916903609918243   T   T   T
  6.9032879568640801 13.5510915446425209  8.1916903609918243   T   T   T
  9.3194387417665041 14.1489338186708657  8.1916903609918243   T   T   T
 11.7355895266689352 14.7467760926992142  8.1916903609918243   T   T   T
  5.1774659676480592 15.3446183667275626  8.1916903609918243   T   T   T
  7.5936167525504858 15.9424606407559111  8.1916903609918243   T   T   T
 10.0097675374529125 16.5403029147842560  8.1916903609918243   T   T   T
 12.4259183223553418 17.1381451888126008  8.1916903609918243   T   T   T
  5.8677947633344685 17.7359874628409457  8.1916903609918243   T   T   T
  8.2839455482368969 18.3338297368692942  8.1916903609918243   T   T   T
 10.7000963331393226 18.9316720108976391  8.1916903609918261   T   T   T
 13.1162471180417501 19.5295142849259840  8.1916903609918261   T   T   T
  6.5581235590208768 20.1273565589543360  8.1916903609918243   T   T   T
  8.9742743439233035 20.7251988329826808  8.1916903609918243   T   T   T
 11.3904251288257310 21.3230411070110293  8.1916903609918243   T   T   T
  4.8323015698048559 21.9208833810393777  8.1916903609918261   T   T   T
  7.2484523547072852 22.5187256550677226  8.1916903609918243   T   T   T
  9.6646031396097065 23.1165679290960675  8.1916903609918243   T   T   T
 12.0807539245121411 23.7144102031244230  8.1916903609918243   T   T   T
  5.5226303654912634 24.3122524771527608  8.1916903609918208   T   T   T
  7.9387811503936918 24.9100947511811022  8.1916903609918243   T   T   T
 10.3549319352961167 25.5079370252094506  8.1916903609918208   T   T   T
 12.7710827201985442 26.1057792992378026  8.1916903609918190   T   T   T
  6.2129591611776727 26.7036215732661475  8.1916903609918243   T   T   T
  8.6291099460801011 27.3014638472944924  8.1916903609918243   T   T   T
 11.0452607309825268 27.8993061213228408  8.1916903609918243   T   T   T
 13.4614115158849525 28.4971483953511893  8.1916903609918243   T   T   T
  6.9032879568640810 29.0949906693795306  8.1916903609918243   T   T   T
  9.3194387417665094 29.6928329434078755  8.1916903609918208   T   T   T
 11.7355895266689334 30.2906752174362239  8.1916903609918243   T   T   T
  5.1774659676480619 30.8885174914645688  8.1916903609918243   T   T   T
  7.5936167525504894 31.4863597654929173  8.1916903609918243   T   T   T
 10.0097675374529125 32.0842020395212586  8.1916903609918243   T   T   T
 12.4259183223553435 32.6820443135496106  8.1916903609918261   T   T   T
  5.8677947633344685 33.2798865875779484  8.1916903609918243   T   T   T
  8.2839455482368987 33.8777288616063004  8.1916903609918243   T   T   T
 10.7000963331393244 34.4755711356346453  8.1916903609918226   T   T   T
 13.1162471180417519 35.0734134096629901  8.1916903609918261   T   T   T
  6.5581235590208795 35.6712556836913421  8.1916903609918243   T   T   T
  8.9742743439233053 36.2690979577196870  8.1916903609918172   T   T   T
 11.3904251288257345 36.8669402317480319  8.1916903609918261   T   T   T
  5.1774659676480592  4.9820189502362231 10.2239633085393056   T   T   T
  7.5936167525504867  5.5798612242645715 10.2239633085393073   T   T   T
 10.0097675374529125  6.1777034982929164 10.2239633085393091   T   T   T
 12.4259183223553418  6.7755457723212631 10.2239633085393091   T   T   T
  5.8677947633344667  7.3733880463496098 10.2239633085393056   T   T   T
  8.2839455482368969  7.9712303203779591 10.2239633085393091   T   T   T
 10.7000963331393208  8.5690725944063058 10.2239633085393091   T   T   T
 13.1162471180417501  9.1669148684346489 10.2239633085393091   T   T   T
  6.5581235590208751  9.7647571424629955 10.2239633085393073   T   T   T
  8.9742743439233017 10.3625994164913440 10.2239633085393109   T   T   T
 11.3904251288257310 10.9604416905196906 10.2239633085393073   T   T   T
 13.8065759137281603 11.5582839645480373 10.2239633085393091   T   T   T
  7.2484523547072826 12.1561262385763804 10.2239633085393073   T   T   T
  9.6646031396097101 12.7539685126047271 10.2239633085393091   T   T   T
 12.0807539245121340 13.3518107866330737 10.2239633085393056   T   T   T
  5.5226303654912634 13.9496530606614222 10.2239633085393056   T   T   T
  7.9387811503936918 14.5474953346897653 10.2239633085393056   T   T   T
 10.3549319352961202 15.1453376087181137 10.2239633085393056   T   T   T
 12.7710827201985442 15.7431798827464622 10.2239633085393056   T   T   T
  6.2129591611776718 16.3410221567748053 10.2239633085393091   T   T   T
  8.6291099460800975 16.9388644308031537 10.2239633085393091   T   T   T
 11.0452607309825304 17.5367067048315022 10.2239633085393091   T   T   T
 13.4614115158849543 18.1345489788598435 10.2239633085393056   T   T   T
  6.9032879568640793 18.7323912528881920 10.2239633085393073   T   T   T
  9.3194387417665112 19.3302335269165404 10.2239633085393056   T   T   T
 11.7355895266689334 19.9280758009448888 10.2239633085393056   T   T   T
 14.1517403115713609 20.5259180749732337 10.2239633085393091   T   T   T
  7.5936167525504867 21.1237603490015857 10.2239633085393091   T   T   T
 10.0097675374529125 21.7216026230299235 10.2239633085393056   T   T   T
 12.4259183223553418 22.3194448970582791 10.2239633085393091   T   T   T
  5.8677947633344694 22.9172871710866239 10.2239633085393091   T   T   T
  8.2839455482368969 23.5151294451149617 10.2239633085393038   T   T   T
 10.7000963331393208 24.1129717191433102 10.2239633085393038   T   T   T
 13.1162471180417484 24.7108139931716657 10.2239633085393109   T   T   T
  6.5581235590208760 25.3086562672000071 10.2239633085393091   T   T   T
  8.9742743439233017 25.9064985412283555 10.2239633085393091   T   T   T
 11.3904251288257292 26.5043408152567004 10.2239633085393091   T   T   T
 13.8065759137281585 27.1021830892850524 10.2239633085393056   T   T   T
  7.2484523547072843 27.7000253633133866 10.2239633085393056   T   T   T
  9.6646031396097083 28.2978676373417350 10.2239633085393056   T   T   T
 12.0807539245121376 28.8957099113700799 10.2239633085393091   T   T   T
 14.4969047094145580 29.4935521853984319 10.2239633085393038   T   T   T
  7.9387811503936936 30.0913944594267733 10.2239633085393056   T   T   T
 10.3549319352961220 30.6892367334551182 10.2239633085393073   T   T   T
 12.7710827201985406 31.2870790074834701 10.2239633085393056   T   T   T
  6.2129591611776727 31.8849212815118150 10.2239633085393073   T   T   T
  8.6291099460801011 32.4827635555401599 10.2239633085393056   T   T   T
 11.0452607309825286 33.0806058295685119 10.2239633085393109   T   T   T
 13.4614115158849561 33.6784481035968639 10.2239633085393127   T   T   T
  6.9032879568640810 34.2762903776252088 10.2239633085393056   T   T   T
  9.3194387417665077 34.8741326516535537 10.2239633085393056   T   T   T
 11.7355895266689370 35.4719749256819057 10.2239633085393073   T   T   T
 14.1517403115713609 36.0698171997102435 10.2239633085393073   T   T   T
  7.5936167525504894 36.6676594737385884 10.2239633085393056   T   T   T
 10.0097675374529143 37.2655017477669261 10.2239633085393056   T   T   T
 12.4259183223553435 37.8633440217952781 10.2239633085393109   T   T   T
  2.6079087837042114 29.7592598627443579 16.6239633085393095   T   T   T
  4.5254887717220118 26.0393523799013167 16.6239633085393095   T   T   T
  6.4430687597398109 22.3194448970582684 16.6239633085393059   T   T   T
  1.3039543918521057 14.8796299313721789 16.6239633085393059   T   T   T
  8.3606487477576099 18.5995374142152272 16.6239633085393059   T   T   T
  3.2215343798699054 11.1597224485291342 16.6239633085393059   T   T   T
  5.1391143678877054  7.4398149656860895 16.6239633085393059   T   T   T
  0.0000000000000000  0.0000000000000000 16.6239633085393059   T   T   T
  7.0566943559055062  3.7199074828430465 16.6239633085393059   T   T   T
  3.5666987777131132 27.8993061213228373 18.7239633085393109   T   T   T
  5.4842787657309113 24.1793986384797925 18.7239633085393109   T   T   T
  7.4018587537487095 20.4594911556367514 18.7239633085393073   T   T   T
  2.2627443858610059 13.0196761899506583 18.7239633085393073   T   T   T
  0.3451643978432058 16.7395836727937031 18.7239633085393073   T   T   T
  4.1803243738788050  9.2997687071076136 18.7239633085393073   T   T   T
  6.0979043618966058  5.5798612242645680 18.7239633085393073   T   T   T
  1.6491187896953097 31.6192136041658856 18.7239633085393109   T   T   T
  8.0154843499144057  1.8599537414215239 18.7239633085393073   T   T   T
  4.3720823726805866 30.6892367334551217 18.7239633085393109   T   T   T
  6.2896623606983848 26.9693292506120770 18.7239633085393109   T   T   T
  8.2072423487161856 23.2494217677690322 18.7239633085393109   T   T   T
  3.0681279808284811 15.8096068020829428 18.7239633085393073   T   T   T
  1.1505479928106843 19.5295142849259875 18.7239633085393073   T   T   T
  4.9857079688462811 12.0896993192398963 18.7239633085393073   T   T   T
  6.9032879568640801  8.3697918363968515 18.7239633085393073   T   T   T
  1.7641735889763763  0.9299768707107615 18.7239633085393073   T   T   T
  8.8208679448818827  4.6498843535538086 18.7239633085393073   T   T   T
  5.3308723666894888 28.8292829920335976 16.6239633085393095   T   T   T
  7.2484523547072870 25.1093755091905564 16.6239633085393095   T   T   T
  9.1660323427250852 21.3894680263475081 16.6239633085393095   T   T   T
  4.0269179748373798 13.9496530606614204 16.6239633085393059   T   T   T
  2.1093379868195843 17.6695605435044634 16.6239633085393059   T   T   T
  5.9444979628551806 10.2297455778183757 16.6239633085393059   T   T   T
  7.8620779508729797  6.5098380949753283 16.6239633085393059   T   T   T
  3.4132923786716871 32.5491904748766459 16.6239633085393095   T   T   T
  0.8053835949674795  2.7899306121322849 16.6239633085393059   T   T   T
  6.1362559616569623 31.6192136041658856 16.6239633085393095   T   T   T
  8.0538359496747596 27.8993061213228408 16.6239633085393095   T   T   T
  0.9971415937692607 24.1793986384797961 16.6239633085393059   T   T   T
  4.8323015698048586 16.7395836727937031 16.6239633085393059   T   T   T
  2.9147215817870595 20.4594911556367514 16.6239633085393059   T   T   T
  6.7498815578226612 13.0196761899506601 16.6239633085393059   T   T   T
  8.6674615458404602  9.2997687071076154 16.6239633085393059   T   T   T
  3.5283471779527527  1.8599537414215230 16.6239633085393059   T   T   T
  1.6107671899349552  5.5798612242645698 16.6239633085393059   T   T   T
  7.0950459556658645 29.7592598627443579 18.7239633085393109   T   T   T
  9.0126259436836627 26.0393523799013131 18.7239633085393109   T   T   T
  1.9559315877781569 22.3194448970582755 18.7239633085393073   T   T   T
  5.7910915638137608 14.8796299313721843 18.7239633085393073   T   T   T
  3.8735115757959577 18.5995374142152272 18.7239633085393073   T   T   T
  7.7086715518315598 11.1597224485291378 18.7239633085393073   T   T   T
  0.6519771959260549  7.4398149656860895 18.7239633085393073   T   T   T
  4.4871371719616526  0.0000000000000002 18.7239633085393073   T   T   T
  2.5695571839438553  3.7199074828430470 18.7239633085393073   T   T   T
  7.9004295506333397 32.5491904748766459 18.7239633085393109   T   T   T
  0.8437351947278382 28.8292829920336047 18.7239633085393109   T   T   T
  2.7613151827456379 25.1093755091905599 18.7239633085393073   T   T   T
  6.5964751587812360 17.6695605435044634 18.7239633085393073   T   T   T
  4.6788951707634379 21.3894680263475117 18.7239633085393073   T   T   T
  8.5140551467990360 13.9496530606614186 18.7239633085393073   T   T   T
  1.4573607908935333 10.2297455778183704 18.7239633085393073   T   T   T
  5.2925207669291296  2.7899306121322849 18.7239633085393073   T   T   T
  3.3749407789113324  6.5098380949753301 18.7239633085393073   T   T   T
  8.8592195446422455 30.6892367334551253 16.6239633085393095   T   T   T
  1.8025251887367382 26.9693292506120805 16.6239633085393059   T   T   T
  3.7201051767545379 23.2494217677690322 16.6239633085393059   T   T   T
  7.5552651527901364 15.8096068020829428 16.6239633085393059   T   T   T
  5.6376851647723365 19.5295142849259875 16.6239633085393059   T   T   T
  0.4985707968846333 12.0896993192398980 16.6239633085393059   T   T   T
  2.4161507849024311  8.3697918363968515 16.6239633085393059   T   T   T
  6.2513107609380292  0.9299768707107622 16.6239633085393059   T   T   T
  4.3337307729202328  4.6498843535538068 16.6239633085393059   T   T   T
  2.6079087837042114 29.7592598627443579 12.4239633085393120   T   T   T
  4.5254887717220118 26.0393523799013167 12.4239633085393120   T   T   T
  6.4430687597398109 22.3194448970582684 12.4239633085393120   T   T   T
  1.3039543918521057 14.8796299313721789 12.4239633085393120   T   T   T
  8.3606487477576099 18.5995374142152272 12.4239633085393120   T   T   T
  3.2215343798699054 11.1597224485291342 12.4239633085393102   T   T   T
  5.1391143678877054  7.4398149656860895 12.4239633085393102   T   T   T
  0.0000000000000000  0.0000000000000000 12.4239633085393102   T   T   T
  7.0566943559055062  3.7199074828430465 12.4239633085393102   T   T   T
  3.5666987777131132 27.8993061213228373 14.5239633085393098   T   T   T
  5.4842787657309113 24.1793986384797925 14.5239633085393098   T   T   T
  7.4018587537487095 20.4594911556367514 14.5239633085393098   T   T   T
  2.2627443858610059 13.0196761899506583 14.5239633085393098   T   T   T
  0.3451643978432058 16.7395836727937031 14.5239633085393098   T   T   T
  4.1803243738788050  9.2997687071076136 14.5239633085393081   T   T   T
  6.0979043618966058  5.5798612242645680 14.5239633085393081   T   T   T
  1.6491187896953097 31.6192136041658856 14.5239633085393098   T   T   T
  8.0154843499144057  1.8599537414215239 14.5239633085393081   T   T   T
  4.3720823726805866 30.6892367334551217 14.5239633085393098   T   T   T
  6.2896623606983848 26.9693292506120770 14.5239633085393098   T   T   T
  8.2072423487161856 23.2494217677690322 14.5239633085393098   T   T   T
  3.0681279808284811 15.8096068020829428 14.5239633085393098   T   T   T
  1.1505479928106843 19.5295142849259875 14.5239633085393098   T   T   T
  4.9857079688462811 12.0896993192398963 14.5239633085393098   T   T   T
  6.9032879568640801  8.3697918363968515 14.5239633085393098   T   T   T
  1.7641735889763763  0.9299768707107615 14.5239633085393081   T   T   T
  8.8208679448818827  4.6498843535538086 14.5239633085393081   T   T   T
  5.3308723666894888 28.8292829920335976 12.4239633085393120   T   T   T
  7.2484523547072870 25.1093755091905564 12.4239633085393120   T   T   T
  9.1660323427250852 21.3894680263475081 12.4239633085393120   T   T   T
  4.0269179748373798 13.9496530606614204 12.4239633085393120   T   T   T
  2.1093379868195843 17.6695605435044634 12.4239633085393120   T   T   T
  5.9444979628551806 10.2297455778183757 12.4239633085393120   T   T   T
  7.8620779508729797  6.5098380949753283 12.4239633085393102   T   T   T
  3.4132923786716871 32.5491904748766459 12.4239633085393120   T   T   T
  0.8053835949674795  2.7899306121322849 12.4239633085393102   T   T   T
  6.1362559616569623 31.6192136041658856 12.4239633085393120   T   T   T
  8.0538359496747596 27.8993061213228408 12.4239633085393120   T   T   T
  0.9971415937692607 24.1793986384797961 12.4239633085393120   T   T   T
  4.8323015698048586 16.7395836727937031 12.4239633085393120   T   T   T
  2.9147215817870595 20.4594911556367514 12.4239633085393120   T   T   T
  6.7498815578226612 13.0196761899506601 12.4239633085393120   T   T   T
  8.6674615458404602  9.2997687071076154 12.4239633085393120   T   T   T
  3.5283471779527527  1.8599537414215230 12.4239633085393102   T   T   T
  1.6107671899349552  5.5798612242645698 12.4239633085393102   T   T   T
  7.0950459556658645 29.7592598627443579 14.5239633085393098   T   T   T
  9.0126259436836627 26.0393523799013131 14.5239633085393098   T   T   T
  1.9559315877781569 22.3194448970582755 14.5239633085393098   T   T   T
  5.7910915638137608 14.8796299313721843 14.5239633085393098   T   T   T
  3.8735115757959577 18.5995374142152272 14.5239633085393098   T   T   T
  7.7086715518315598 11.1597224485291378 14.5239633085393098   T   T   T
  0.6519771959260549  7.4398149656860895 14.5239633085393081   T   T   T
  4.4871371719616526  0.0000000000000002 14.5239633085393081   T   T   T
  2.5695571839438553  3.7199074828430470 14.5239633085393081   T   T   T
  7.9004295506333397 32.5491904748766459 14.5239633085393098   T   T   T
  0.8437351947278382 28.8292829920336047 14.5239633085393098   T   T   T
  2.7613151827456379 25.1093755091905599 14.5239633085393098   T   T   T
  6.5964751587812360 17.6695605435044634 14.5239633085393098   T   T   T
  4.6788951707634379 21.3894680263475117 14.5239633085393098   T   T   T
  8.5140551467990360 13.9496530606614186 14.5239633085393098   T   T   T
  1.4573607908935333 10.2297455778183704 14.5239633085393081   T   T   T
  5.2925207669291296  2.7899306121322849 14.5239633085393081   T   T   T
  3.3749407789113324  6.5098380949753301 14.5239633085393081   T   T   T
  8.8592195446422455 30.6892367334551253 12.4239633085393120   T   T   T
  1.8025251887367382 26.9693292506120805 12.4239633085393120   T   T   T
  3.7201051767545379 23.2494217677690322 12.4239633085393120   T   T   T
  7.5552651527901364 15.8096068020829428 12.4239633085393120   T   T   T
  5.6376851647723365 19.5295142849259875 12.4239633085393120   T   T   T
  0.4985707968846333 12.0896993192398980 12.4239633085393102   T   T   T
  2.4161507849024311  8.3697918363968515 12.4239633085393102   T   T   T
  6.2513107609380292  0.9299768707107622 12.4239633085393102   T   T   T
  4.3337307729202328  4.6498843535538068 12.4239633085393102   T   T   T
  2.6079087837042114 29.7592598627443579 18.7239633085393109   T   T   T
  4.5254887717220118 26.0393523799013167 18.7239633085393109   T   T   T
  6.4430687597398109 22.3194448970582684 18.7239633085393073   T   T   T
  1.3039543918521057 14.8796299313721789 18.7239633085393073   T   T   T
  8.3606487477576099 18.5995374142152272 18.7239633085393073   T   T   T
  3.2215343798699054 11.1597224485291342 18.7239633085393073   T   T   T
  5.1391143678877054  7.4398149656860895 18.7239633085393073   T   T   T
  0.0000000000000000  0.0000000000000000 18.7239633085393073   T   T   T
  7.0566943559055062  3.7199074828430465 18.7239633085393073   T   T   T
  5.3308723666894888 28.8292829920335976 18.7239633085393109   T   T   T
  7.2484523547072870 25.1093755091905564 18.7239633085393109   T   T   T
  9.1660323427250852 21.3894680263475081 18.7239633085393109   T   T   T
  4.0269179748373798 13.9496530606614204 18.7239633085393073   T   T   T
  2.1093379868195843 17.6695605435044634 18.7239633085393073   T   T   T
  5.9444979628551806 10.2297455778183757 18.7239633085393073   T   T   T
  7.8620779508729797  6.5098380949753283 18.7239633085393073   T   T   T
  3.4132923786716871 32.5491904748766459 18.7239633085393109   T   T   T
  0.8053835949674795  2.7899306121322849 18.7239633085393073   T   T   T
  7.0950459556658645 29.7592598627443579 16.6239633085393095   T   T   T
  9.0126259436836627 26.0393523799013131 16.6239633085393095   T   T   T
  1.9559315877781569 22.3194448970582755 16.6239633085393059   T   T   T
  5.7910915638137608 14.8796299313721843 16.6239633085393059   T   T   T
  3.8735115757959577 18.5995374142152272 16.6239633085393059   T   T   T
  7.7086715518315598 11.1597224485291378 16.6239633085393059   T   T   T
  0.6519771959260549  7.4398149656860895 16.6239633085393059   T   T   T
  4.4871371719616526  0.0000000000000002 16.6239633085393059   T   T   T
  2.5695571839438553  3.7199074828430470 16.6239633085393059   T   T   T
  7.9004295506333397 32.5491904748766459 16.6239633085393095   T   T   T
  0.8437351947278382 28.8292829920336047 16.6239633085393095   T   T   T
  2.7613151827456379 25.1093755091905599 16.6239633085393059   T   T   T
  6.5964751587812360 17.6695605435044634 16.6239633085393059   T   T   T
  4.6788951707634379 21.3894680263475117 16.6239633085393059   T   T   T
  8.5140551467990360 13.9496530606614186 16.6239633085393059   T   T   T
  1.4573607908935333 10.2297455778183704 16.6239633085393059   T   T   T
  5.2925207669291296  2.7899306121322849 16.6239633085393059   T   T   T
  3.3749407789113324  6.5098380949753301 16.6239633085393059   T   T   T
  2.6079087837042114 29.7592598627443579 14.5239633085393098   T   T   T
  4.5254887717220118 26.0393523799013167 14.5239633085393098   T   T   T
  6.4430687597398109 22.3194448970582684 14.5239633085393098   T   T   T
  1.3039543918521057 14.8796299313721789 14.5239633085393098   T   T   T
  8.3606487477576099 18.5995374142152272 14.5239633085393098   T   T   T
  3.2215343798699054 11.1597224485291342 14.5239633085393081   T   T   T
  5.1391143678877054  7.4398149656860895 14.5239633085393081   T   T   T
  0.0000000000000000  0.0000000000000000 14.5239633085393081   T   T   T
  7.0566943559055062  3.7199074828430465 14.5239633085393081   T   T   T
  5.3308723666894888 28.8292829920335976 14.5239633085393098   T   T   T
  7.2484523547072870 25.1093755091905564 14.5239633085393098   T   T   T
  9.1660323427250852 21.3894680263475081 14.5239633085393098   T   T   T
  4.0269179748373798 13.9496530606614204 14.5239633085393098   T   T   T
  2.1093379868195843 17.6695605435044634 14.5239633085393098   T   T   T
  5.9444979628551806 10.2297455778183757 14.5239633085393098   T   T   T
  7.8620779508729797  6.5098380949753283 14.5239633085393081   T   T   T
  3.4132923786716871 32.5491904748766459 14.5239633085393098   T   T   T
  0.8053835949674795  2.7899306121322849 14.5239633085393081   T   T   T
  7.0950459556658645 29.7592598627443579 12.4239633085393120   T   T   T
  9.0126259436836627 26.0393523799013131 12.4239633085393120   T   T   T
  1.9559315877781569 22.3194448970582755 12.4239633085393120   T   T   T
  5.7910915638137608 14.8796299313721843 12.4239633085393120   T   T   T
  3.8735115757959577 18.5995374142152272 12.4239633085393120   T   T   T
  7.7086715518315598 11.1597224485291378 12.4239633085393120   T   T   T
  0.6519771959260549  7.4398149656860895 12.4239633085393102   T   T   T
  4.4871371719616526  0.0000000000000002 12.4239633085393102   T   T   T
  2.5695571839438553  3.7199074828430470 12.4239633085393102   T   T   T
  7.9004295506333397 32.5491904748766459 12.4239633085393120   T   T   T
  0.8437351947278382 28.8292829920336047 12.4239633085393120   T   T   T
  2.7613151827456379 25.1093755091905599 12.4239633085393120   T   T   T
  6.5964751587812360 17.6695605435044634 12.4239633085393120   T   T   T
  4.6788951707634379 21.3894680263475117 12.4239633085393120   T   T   T
  8.5140551467990360 13.9496530606614186 12.4239633085393120   T   T   T
  1.4573607908935333 10.2297455778183704 12.4239633085393102   T   T   T
  5.2925207669291296  2.7899306121322849 12.4239633085393102   T   T   T
  3.3749407789113324  6.5098380949753301 12.4239633085393102   T   T   T
  5.3675371335075077 16.9345489788598478 20.5239633085393116   T   T   T
  5.3675371335075077 19.3345489788598464 20.5239633085393116   T   T   T
  7.7675371335075081 16.9345489788598478 20.5239633085393116   T   T   T
  7.7675371335075081 19.3345489788598464 20.5239633085393116   T   T   T
