Mo N  Mo N  Mo N  Mo N  Mo N  Mo N  Mo N  Mo N  Mo N  Mo N  Mo N  Mo N  Mo N  Mo N  Mo N  Mo N  Mo N  Mo N  Mo N  Mo Pt Mo N  Mo N  Mo N  Mo N  Mo N  Mo N  Mo N  Mo N  Mo N  Mo N  Mo N  Mo N  Mo N  Mo N  Mo N  Mo N  Mo N 
 1.0000000000000000
    12.6000000000000014    0.0000000000000000    0.0000000000000000
     0.0000000000000000   24.0000000000000000    0.0000000000000000
     0.0000000000000000    0.0000000000000000   30.7000000000000028
 Mo  N   Mo  N   Mo  N   Mo  N   Mo  N   Mo  N   Mo  N   Mo  N   Mo  N   Mo  N   Mo  N   Mo  N   Mo  N   Mo  N   Mo  N   Mo  N   Mo  N   Mo  N   Mo  N   Mo  Pt  Mo  N   Mo  N   Mo  N   Mo  N   Mo  N   Mo  N   Mo  N   Mo  N   Mo  N   Mo  N   Mo  N   Mo  N   Mo  N   Mo  N   Mo  N   Mo  N   Mo  N  
   8   4   8   4   8   4   8   4   8   4   8   4   8   4   8   4   8   4   8   4   8   4   8   4   8   4   8   4   8   4   8   4   8   4   8   4   8   4   5   1   2   4   8   4   8   4   8   4   8   4   8   4   8   4   8   4   8   4   8   4   8   4   8   4   8   4   8   4   8   4   8   4   8   4
Selective dynamics
Cartesian
  0.0000000000000000  0.0000000000000000  8.0000000000000000   F   F   F
  2.1000000000000001  0.0000000000000000 10.0999999999999996   F   F   F
  0.0000000000000000  2.0000000000000000 10.0999999999999996   F   F   F
  2.1000000000000001  2.0000000000000000  8.0000000000000000   F   F   F
  0.0000000000000000  4.0000000000000000  8.0000000000000000   F   F   F
  2.1000000000000001  4.0000000000000000 10.0999999999999996   F   F   F
  0.0000000000000000  6.0000000000000000 10.0999999999999996   F   F   F
  2.1000000000000001  6.0000000000000000  8.0000000000000000   F   F   F
  0.0000000000000000  0.0000000000000000 10.0999999999999996   F   F   F
  2.1000000000000001  2.0000000000000000 10.0999999999999996   F   F   F
  2.1000000000000001  4.0000000000000000  8.0000000000000000   F   F   F
  0.0000000000000000  6.0000000000000000  8.0000000000000000   F   F   F
  0.0000000000000000  0.0000000000000000 12.1999999999999993   F   F   F
  2.1000000000000001  0.0000000000000000 14.3000000000000007   F   F   F
  0.0000000000000000  2.0000000000000000 14.3000000000000007   F   F   F
  2.1000000000000001  2.0000000000000000 12.1999999999999993   F   F   F
  0.0000000000000000  4.0000000000000000 12.1999999999999993   F   F   F
  2.1000000000000001  4.0000000000000000 14.3000000000000007   F   F   F
  0.0000000000000000  6.0000000000000000 14.3000000000000007   F   F   F
  2.1000000000000001  6.0000000000000000 12.1999999999999993   F   F   F
  0.0000000000000000  0.0000000000000000 14.3000000000000007   F   F   F
  2.1000000000000001  2.0000000000000000 14.3000000000000007   F   F   F
  2.1000000000000001  4.0000000000000000 12.1999999999999993   F   F   F
  0.0000000000000000  6.0000000000000000 12.1999999999999993   F   F   F
  0.0000000000000000  0.0000000000000000 16.3999999999999986   T   T   T
  2.1000000000000001  0.0000000000000000 18.5000000000000000   T   T   T
  0.0000000000000000  2.0000000000000000 18.5000000000000000   T   T   T
  2.1000000000000001  2.0000000000000000 16.3999999999999986   T   T   T
  0.0000000000000000  4.0000000000000000 16.3999999999999986   T   T   T
  2.1000000000000001  4.0000000000000000 18.5000000000000000   T   T   T
  0.0000000000000000  6.0000000000000000 18.5000000000000000   T   T   T
  2.1000000000000001  6.0000000000000000 16.3999999999999986   T   T   T
  0.0000000000000000  0.0000000000000000 18.5000000000000000   T   T   T
  2.1000000000000001  2.0000000000000000 18.5000000000000000   T   T   T
  2.1000000000000001  4.0000000000000000 16.3999999999999986   T   T   T
  0.0000000000000000  6.0000000000000000 16.3999999999999986   T   T   T
  0.0000000000000000  0.0000000000000000 20.6000000000000014   T   T   T
  2.1000000000000001  0.0000000000000000 22.7000000000000028   T   T   T
  0.0000000000000000  2.0000000000000000 22.7000000000000028   T   T   T
  2.1000000000000001  2.0000000000000000 20.6000000000000014   T   T   T
  0.0000000000000000  4.0000000000000000 20.6000000000000014   T   T   T
  2.1000000000000001  4.0000000000000000 22.7000000000000028   T   T   T
  0.0000000000000000  6.0000000000000000 22.7000000000000028   T   T   T
  2.1000000000000001  6.0000000000000000 20.6000000000000014   T   T   T
  0.0000000000000000  0.0000000000000000 22.7000000000000028   T   T   T
  2.1000000000000001  2.0000000000000000 22.7000000000000028   T   T   T
  2.1000000000000001  4.0000000000000000 20.6000000000000014   T   T   T
  0.0000000000000000  6.0000000000000000 20.6000000000000014   T   T   T
  0.0000000000000000  8.0000000000000000  8.0000000000000000   F   F   F
  2.1000000000000001  8.0000000000000000 10.0999999999999996   F   F   F
  0.0000000000000000 10.0000000000000000 10.0999999999999996   F   F   F
  2.1000000000000001 10.0000000000000000  8.0000000000000000   F   F   F
  0.0000000000000000 12.0000000000000000  8.0000000000000000   F   F   F
  2.1000000000000001 12.0000000000000000 10.0999999999999996   F   F   F
  0.0000000000000000 14.0000000000000000 10.0999999999999996   F   F   F
  2.1000000000000001 14.0000000000000000  8.0000000000000000   F   F   F
  0.0000000000000000  8.0000000000000000 10.0999999999999996   F   F   F
  2.1000000000000001 10.0000000000000000 10.0999999999999996   F   F   F
  2.1000000000000001 12.0000000000000000  8.0000000000000000   F   F   F
  0.0000000000000000 14.0000000000000000  8.0000000000000000   F   F   F
  0.0000000000000000  8.0000000000000000 12.1999999999999993   F   F   F
  2.1000000000000001  8.0000000000000000 14.3000000000000007   F   F   F
  0.0000000000000000 10.0000000000000000 14.3000000000000007   F   F   F
  2.1000000000000001 10.0000000000000000 12.1999999999999993   F   F   F
  0.0000000000000000 12.0000000000000000 12.1999999999999993   F   F   F
  2.1000000000000001 12.0000000000000000 14.3000000000000007   F   F   F
  0.0000000000000000 14.0000000000000000 14.3000000000000007   F   F   F
  2.1000000000000001 14.0000000000000000 12.1999999999999993   F   F   F
  0.0000000000000000  8.0000000000000000 14.3000000000000007   F   F   F
  2.1000000000000001 10.0000000000000000 14.3000000000000007   F   F   F
  2.1000000000000001 12.0000000000000000 12.1999999999999993   F   F   F
  0.0000000000000000 14.0000000000000000 12.1999999999999993   F   F   F
  0.0000000000000000  8.0000000000000000 16.3999999999999986   T   T   T
  2.1000000000000001  8.0000000000000000 18.5000000000000000   T   T   T
  0.0000000000000000 10.0000000000000000 18.5000000000000000   T   T   T
  2.1000000000000001 10.0000000000000000 16.3999999999999986   T   T   T
  0.0000000000000000 12.0000000000000000 16.3999999999999986   T   T   T
  2.1000000000000001 12.0000000000000000 18.5000000000000000   T   T   T
  0.0000000000000000 14.0000000000000000 18.5000000000000000   T   T   T
  2.1000000000000001 14.0000000000000000 16.3999999999999986   T   T   T
  0.0000000000000000  8.0000000000000000 18.5000000000000000   T   T   T
  2.1000000000000001 10.0000000000000000 18.5000000000000000   T   T   T
  2.1000000000000001 12.0000000000000000 16.3999999999999986   T   T   T
  0.0000000000000000 14.0000000000000000 16.3999999999999986   T   T   T
  0.0000000000000000  8.0000000000000000 20.6000000000000014   T   T   T
  2.1000000000000001  8.0000000000000000 22.7000000000000028   T   T   T
  0.0000000000000000 10.0000000000000000 22.7000000000000028   T   T   T
  2.1000000000000001 10.0000000000000000 20.6000000000000014   T   T   T
  0.0000000000000000 12.0000000000000000 20.6000000000000014   T   T   T
  2.1000000000000001 12.0000000000000000 22.7000000000000028   T   T   T
  0.0000000000000000 14.0000000000000000 22.7000000000000028   T   T   T
  2.1000000000000001 14.0000000000000000 20.6000000000000014   T   T   T
  0.0000000000000000  8.0000000000000000 22.7000000000000028   T   T   T
  2.1000000000000001 10.0000000000000000 22.7000000000000028   T   T   T
  2.1000000000000001 12.0000000000000000 20.6000000000000014   T   T   T
  0.0000000000000000 14.0000000000000000 20.6000000000000014   T   T   T
  0.0000000000000000 16.0000000000000000  8.0000000000000000   F   F   F
  2.1000000000000001 16.0000000000000000 10.0999999999999996   F   F   F
  0.0000000000000000 18.0000000000000000 10.0999999999999996   F   F   F
  2.1000000000000001 18.0000000000000000  8.0000000000000000   F   F   F
  0.0000000000000000 20.0000000000000000  8.0000000000000000   F   F   F
  2.1000000000000001 20.0000000000000000 10.0999999999999996   F   F   F
  0.0000000000000000 22.0000000000000000 10.0999999999999996   F   F   F
  2.1000000000000001 22.0000000000000000  8.0000000000000000   F   F   F
  0.0000000000000000 16.0000000000000000 10.0999999999999996   F   F   F
  2.1000000000000001 18.0000000000000000 10.0999999999999996   F   F   F
  2.1000000000000001 20.0000000000000000  8.0000000000000000   F   F   F
  0.0000000000000000 22.0000000000000000  8.0000000000000000   F   F   F
  0.0000000000000000 16.0000000000000000 12.1999999999999993   F   F   F
  2.1000000000000001 16.0000000000000000 14.3000000000000007   F   F   F
  0.0000000000000000 18.0000000000000000 14.3000000000000007   F   F   F
  2.1000000000000001 18.0000000000000000 12.1999999999999993   F   F   F
  0.0000000000000000 20.0000000000000000 12.1999999999999993   F   F   F
  2.1000000000000001 20.0000000000000000 14.3000000000000007   F   F   F
  0.0000000000000000 22.0000000000000000 14.3000000000000007   F   F   F
  2.1000000000000001 22.0000000000000000 12.1999999999999993   F   F   F
  0.0000000000000000 16.0000000000000000 14.3000000000000007   F   F   F
  2.1000000000000001 18.0000000000000000 14.3000000000000007   F   F   F
  2.1000000000000001 20.0000000000000000 12.1999999999999993   F   F   F
  0.0000000000000000 22.0000000000000000 12.1999999999999993   F   F   F
  0.0000000000000000 16.0000000000000000 16.3999999999999986   T   T   T
  2.1000000000000001 16.0000000000000000 18.5000000000000000   T   T   T
  0.0000000000000000 18.0000000000000000 18.5000000000000000   T   T   T
  2.1000000000000001 18.0000000000000000 16.3999999999999986   T   T   T
  0.0000000000000000 20.0000000000000000 16.3999999999999986   T   T   T
  2.1000000000000001 20.0000000000000000 18.5000000000000000   T   T   T
  0.0000000000000000 22.0000000000000000 18.5000000000000000   T   T   T
  2.1000000000000001 22.0000000000000000 16.3999999999999986   T   T   T
  0.0000000000000000 16.0000000000000000 18.5000000000000000   T   T   T
  2.1000000000000001 18.0000000000000000 18.5000000000000000   T   T   T
  2.1000000000000001 20.0000000000000000 16.3999999999999986   T   T   T
  0.0000000000000000 22.0000000000000000 16.3999999999999986   T   T   T
  0.0000000000000000 16.0000000000000000 20.6000000000000014   T   T   T
  2.1000000000000001 16.0000000000000000 22.7000000000000028   T   T   T
  0.0000000000000000 18.0000000000000000 22.7000000000000028   T   T   T
  2.1000000000000001 18.0000000000000000 20.6000000000000014   T   T   T
  0.0000000000000000 20.0000000000000000 20.6000000000000014   T   T   T
  2.1000000000000001 20.0000000000000000 22.7000000000000028   T   T   T
  0.0000000000000000 22.0000000000000000 22.7000000000000028   T   T   T
  2.1000000000000001 22.0000000000000000 20.6000000000000014   T   T   T
  0.0000000000000000 16.0000000000000000 22.7000000000000028   T   T   T
  2.1000000000000001 18.0000000000000000 22.7000000000000028   T   T   T
  2.1000000000000001 20.0000000000000000 20.6000000000000014   T   T   T
  0.0000000000000000 22.0000000000000000 20.6000000000000014   T   T   T
  4.2000000000000002  0.0000000000000000  8.0000000000000000   F   F   F
  6.3000000000000007  0.0000000000000000 10.0999999999999996   F   F   F
  4.2000000000000002  2.0000000000000000 10.0999999999999996   F   F   F
  6.3000000000000007  2.0000000000000000  8.0000000000000000   F   F   F
  4.2000000000000002  4.0000000000000000  8.0000000000000000   F   F   F
  6.3000000000000007  4.0000000000000000 10.0999999999999996   F   F   F
  4.2000000000000002  6.0000000000000000 10.0999999999999996   F   F   F
  6.3000000000000007  6.0000000000000000  8.0000000000000000   F   F   F
  4.2000000000000002  0.0000000000000000 10.0999999999999996   F   F   F
  6.3000000000000007  2.0000000000000000 10.0999999999999996   F   F   F
  6.3000000000000007  4.0000000000000000  8.0000000000000000   F   F   F
  4.2000000000000002  6.0000000000000000  8.0000000000000000   F   F   F
  4.2000000000000002  0.0000000000000000 12.1999999999999993   F   F   F
  6.3000000000000007  0.0000000000000000 14.3000000000000007   F   F   F
  4.2000000000000002  2.0000000000000000 14.3000000000000007   F   F   F
  6.3000000000000007  2.0000000000000000 12.1999999999999993   F   F   F
  4.2000000000000002  4.0000000000000000 12.1999999999999993   F   F   F
  6.3000000000000007  4.0000000000000000 14.3000000000000007   F   F   F
  4.2000000000000002  6.0000000000000000 14.3000000000000007   F   F   F
  6.3000000000000007  6.0000000000000000 12.1999999999999993   F   F   F
  4.2000000000000002  0.0000000000000000 14.3000000000000007   F   F   F
  6.3000000000000007  2.0000000000000000 14.3000000000000007   F   F   F
  6.3000000000000007  4.0000000000000000 12.1999999999999993   F   F   F
  4.2000000000000002  6.0000000000000000 12.1999999999999993   F   F   F
  4.2000000000000002  0.0000000000000000 16.3999999999999986   T   T   T
  6.3000000000000007  0.0000000000000000 18.5000000000000000   T   T   T
  4.2000000000000002  2.0000000000000000 18.5000000000000000   T   T   T
  6.3000000000000007  2.0000000000000000 16.3999999999999986   T   T   T
  4.2000000000000002  4.0000000000000000 16.3999999999999986   T   T   T
  6.3000000000000007  4.0000000000000000 18.5000000000000000   T   T   T
  4.2000000000000002  6.0000000000000000 18.5000000000000000   T   T   T
  6.3000000000000007  6.0000000000000000 16.3999999999999986   T   T   T
  4.2000000000000002  0.0000000000000000 18.5000000000000000   T   T   T
  6.3000000000000007  2.0000000000000000 18.5000000000000000   T   T   T
  6.3000000000000007  4.0000000000000000 16.3999999999999986   T   T   T
  4.2000000000000002  6.0000000000000000 16.3999999999999986   T   T   T
  4.2000000000000002  0.0000000000000000 20.6000000000000014   T   T   T
  6.3000000000000007  0.0000000000000000 22.7000000000000028   T   T   T
  4.2000000000000002  2.0000000000000000 22.7000000000000028   T   T   T
  6.3000000000000007  2.0000000000000000 20.6000000000000014   T   T   T
  4.2000000000000002  4.0000000000000000 20.6000000000000014   T   T   T
  6.3000000000000007  4.0000000000000000 22.7000000000000028   T   T   T
  4.2000000000000002  6.0000000000000000 22.7000000000000028   T   T   T
  6.3000000000000007  6.0000000000000000 20.6000000000000014   T   T   T
  4.2000000000000002  0.0000000000000000 22.7000000000000028   T   T   T
  6.3000000000000007  2.0000000000000000 22.7000000000000028   T   T   T
  6.3000000000000007  4.0000000000000000 20.6000000000000014   T   T   T
  4.2000000000000002  6.0000000000000000 20.6000000000000014   T   T   T
  4.2000000000000002  8.0000000000000000  8.0000000000000000   F   F   F
  6.3000000000000007  8.0000000000000000 10.0999999999999996   F   F   F
  4.2000000000000002 10.0000000000000000 10.0999999999999996   F   F   F
  6.3000000000000007 10.0000000000000000  8.0000000000000000   F   F   F
  4.2000000000000002 12.0000000000000000  8.0000000000000000   F   F   F
  6.3000000000000007 12.0000000000000000 10.0999999999999996   F   F   F
  4.2000000000000002 14.0000000000000000 10.0999999999999996   F   F   F
  6.3000000000000007 14.0000000000000000  8.0000000000000000   F   F   F
  4.2000000000000002  8.0000000000000000 10.0999999999999996   F   F   F
  6.3000000000000007 10.0000000000000000 10.0999999999999996   F   F   F
  6.3000000000000007 12.0000000000000000  8.0000000000000000   F   F   F
  4.2000000000000002 14.0000000000000000  8.0000000000000000   F   F   F
  4.2000000000000002  8.0000000000000000 12.1999999999999993   F   F   F
  6.3000000000000007  8.0000000000000000 14.3000000000000007   F   F   F
  4.2000000000000002 10.0000000000000000 14.3000000000000007   F   F   F
  6.3000000000000007 10.0000000000000000 12.1999999999999993   F   F   F
  4.2000000000000002 12.0000000000000000 12.1999999999999993   F   F   F
  6.3000000000000007 12.0000000000000000 14.3000000000000007   F   F   F
  4.2000000000000002 14.0000000000000000 14.3000000000000007   F   F   F
  6.3000000000000007 14.0000000000000000 12.1999999999999993   F   F   F
  4.2000000000000002  8.0000000000000000 14.3000000000000007   F   F   F
  6.3000000000000007 10.0000000000000000 14.3000000000000007   F   F   F
  6.3000000000000007 12.0000000000000000 12.1999999999999993   F   F   F
  4.2000000000000002 14.0000000000000000 12.1999999999999993   F   F   F
  4.2000000000000002  8.0000000000000000 16.3999999999999986   T   T   T
  6.3000000000000007  8.0000000000000000 18.5000000000000000   T   T   T
  4.2000000000000002 10.0000000000000000 18.5000000000000000   T   T   T
  6.3000000000000007 10.0000000000000000 16.3999999999999986   T   T   T
  4.2000000000000002 12.0000000000000000 16.3999999999999986   T   T   T
  6.3000000000000007 12.0000000000000000 18.5000000000000000   T   T   T
  4.2000000000000002 14.0000000000000000 18.5000000000000000   T   T   T
  6.3000000000000007 14.0000000000000000 16.3999999999999986   T   T   T
  4.2000000000000002  8.0000000000000000 18.5000000000000000   T   T   T
  6.3000000000000007 10.0000000000000000 18.5000000000000000   T   T   T
  6.3000000000000007 12.0000000000000000 16.3999999999999986   T   T   T
  4.2000000000000002 14.0000000000000000 16.3999999999999986   T   T   T
  4.2000000000000002  8.0000000000000000 20.6000000000000014   T   T   T
  6.3000000000000007  8.0000000000000000 22.7000000000000028   T   T   T
  4.2000000000000002 10.0000000000000000 22.7000000000000028   T   T   T
  6.3000000000000007 10.0000000000000000 20.6000000000000014   T   T   T
  4.2000000000000002 12.0000000000000000 20.6000000000000014   T   T   T
  6.3000000000000007 12.0000000000000000 22.7000000000000028   T   T   T
  4.2000000000000002 14.0000000000000000 22.7000000000000028   T   T   T
  6.3000000000000007 14.0000000000000000 20.6000000000000014   T   T   T
  4.2000000000000002  8.0000000000000000 22.7000000000000028   T   T   T
  6.3000000000000007 10.0000000000000000 22.7000000000000028   T   T   T
  6.3000000000000007 12.0000000000000000 20.6000000000000014   T   T   T
  4.2000000000000002 14.0000000000000000 20.6000000000000014   T   T   T
  4.2000000000000002 16.0000000000000000  8.0000000000000000   F   F   F
  6.3000000000000007 16.0000000000000000 10.0999999999999996   F   F   F
  4.2000000000000002 18.0000000000000000 10.0999999999999996   F   F   F
  6.3000000000000007 18.0000000000000000  8.0000000000000000   F   F   F
  4.2000000000000002 20.0000000000000000  8.0000000000000000   F   F   F
  6.3000000000000007 20.0000000000000000 10.0999999999999996   F   F   F
  4.2000000000000002 22.0000000000000000 10.0999999999999996   F   F   F
  6.3000000000000007 22.0000000000000000  8.0000000000000000   F   F   F
  4.2000000000000002 16.0000000000000000 10.0999999999999996   F   F   F
  6.3000000000000007 18.0000000000000000 10.0999999999999996   F   F   F
  6.3000000000000007 20.0000000000000000  8.0000000000000000   F   F   F
  4.2000000000000002 22.0000000000000000  8.0000000000000000   F   F   F
  4.2000000000000002 16.0000000000000000 12.1999999999999993   F   F   F
  6.3000000000000007 16.0000000000000000 14.3000000000000007   F   F   F
  4.2000000000000002 18.0000000000000000 14.3000000000000007   F   F   F
  6.3000000000000007 18.0000000000000000 12.1999999999999993   F   F   F
  4.2000000000000002 20.0000000000000000 12.1999999999999993   F   F   F
  6.3000000000000007 20.0000000000000000 14.3000000000000007   F   F   F
  4.2000000000000002 22.0000000000000000 14.3000000000000007   F   F   F
  6.3000000000000007 22.0000000000000000 12.1999999999999993   F   F   F
  4.2000000000000002 16.0000000000000000 14.3000000000000007   F   F   F
  6.3000000000000007 18.0000000000000000 14.3000000000000007   F   F   F
  6.3000000000000007 20.0000000000000000 12.1999999999999993   F   F   F
  4.2000000000000002 22.0000000000000000 12.1999999999999993   F   F   F
  4.2000000000000002 16.0000000000000000 16.3999999999999986   T   T   T
  6.3000000000000007 16.0000000000000000 18.5000000000000000   T   T   T
  4.2000000000000002 18.0000000000000000 18.5000000000000000   T   T   T
  6.3000000000000007 18.0000000000000000 16.3999999999999986   T   T   T
  4.2000000000000002 20.0000000000000000 16.3999999999999986   T   T   T
  6.3000000000000007 20.0000000000000000 18.5000000000000000   T   T   T
  4.2000000000000002 22.0000000000000000 18.5000000000000000   T   T   T
  6.3000000000000007 22.0000000000000000 16.3999999999999986   T   T   T
  4.2000000000000002 16.0000000000000000 18.5000000000000000   T   T   T
  6.3000000000000007 18.0000000000000000 18.5000000000000000   T   T   T
  6.3000000000000007 20.0000000000000000 16.3999999999999986   T   T   T
  4.2000000000000002 22.0000000000000000 16.3999999999999986   T   T   T
  4.2000000000000002 16.0000000000000000 20.6000000000000014   T   T   T
  6.3000000000000007 16.0000000000000000 22.7000000000000028   T   T   T
  4.2000000000000002 18.0000000000000000 22.7000000000000028   T   T   T
  6.3000000000000007 18.0000000000000000 20.6000000000000014   T   T   T
  4.2000000000000002 20.0000000000000000 20.6000000000000014   T   T   T
  6.3000000000000007 20.0000000000000000 22.7000000000000028   T   T   T
  4.2000000000000002 22.0000000000000000 22.7000000000000028   T   T   T
  6.3000000000000007 22.0000000000000000 20.6000000000000014   T   T   T
  4.2000000000000002 16.0000000000000000 22.7000000000000028   T   T   T
  6.3000000000000007 18.0000000000000000 22.7000000000000028   T   T   T
  6.3000000000000007 20.0000000000000000 20.6000000000000014   T   T   T
  4.2000000000000002 22.0000000000000000 20.6000000000000014   T   T   T
  8.4000000000000004  0.0000000000000000  8.0000000000000000   F   F   F
 10.5000000000000000  0.0000000000000000 10.0999999999999996   F   F   F
  8.4000000000000004  2.0000000000000000 10.0999999999999996   F   F   F
 10.5000000000000000  2.0000000000000000  8.0000000000000000   F   F   F
  8.4000000000000004  4.0000000000000000  8.0000000000000000   F   F   F
 10.5000000000000000  4.0000000000000000 10.0999999999999996   F   F   F
  8.4000000000000004  6.0000000000000000 10.0999999999999996   F   F   F
 10.5000000000000000  6.0000000000000000  8.0000000000000000   F   F   F
  8.4000000000000004  0.0000000000000000 10.0999999999999996   F   F   F
 10.5000000000000000  2.0000000000000000 10.0999999999999996   F   F   F
 10.5000000000000000  4.0000000000000000  8.0000000000000000   F   F   F
  8.4000000000000004  6.0000000000000000  8.0000000000000000   F   F   F
  8.4000000000000004  0.0000000000000000 12.1999999999999993   F   F   F
 10.5000000000000000  0.0000000000000000 14.3000000000000007   F   F   F
  8.4000000000000004  2.0000000000000000 14.3000000000000007   F   F   F
 10.5000000000000000  2.0000000000000000 12.1999999999999993   F   F   F
  8.4000000000000004  4.0000000000000000 12.1999999999999993   F   F   F
 10.5000000000000000  4.0000000000000000 14.3000000000000007   F   F   F
  8.4000000000000004  6.0000000000000000 14.3000000000000007   F   F   F
 10.5000000000000000  6.0000000000000000 12.1999999999999993   F   F   F
  8.4000000000000004  0.0000000000000000 14.3000000000000007   F   F   F
 10.5000000000000000  2.0000000000000000 14.3000000000000007   F   F   F
 10.5000000000000000  4.0000000000000000 12.1999999999999993   F   F   F
  8.4000000000000004  6.0000000000000000 12.1999999999999993   F   F   F
  8.4000000000000004  0.0000000000000000 16.3999999999999986   T   T   T
 10.5000000000000000  0.0000000000000000 18.5000000000000000   T   T   T
  8.4000000000000004  2.0000000000000000 18.5000000000000000   T   T   T
 10.5000000000000000  2.0000000000000000 16.3999999999999986   T   T   T
  8.4000000000000004  4.0000000000000000 16.3999999999999986   T   T   T
 10.5000000000000000  4.0000000000000000 18.5000000000000000   T   T   T
  8.4000000000000004  6.0000000000000000 18.5000000000000000   T   T   T
 10.5000000000000000  6.0000000000000000 16.3999999999999986   T   T   T
  8.4000000000000004  0.0000000000000000 18.5000000000000000   T   T   T
 10.5000000000000000  2.0000000000000000 18.5000000000000000   T   T   T
 10.5000000000000000  4.0000000000000000 16.3999999999999986   T   T   T
  8.4000000000000004  6.0000000000000000 16.3999999999999986   T   T   T
  8.4000000000000004  0.0000000000000000 20.6000000000000014   T   T   T
 10.5000000000000000  0.0000000000000000 22.7000000000000028   T   T   T
  8.4000000000000004  2.0000000000000000 22.7000000000000028   T   T   T
 10.5000000000000000  2.0000000000000000 20.6000000000000014   T   T   T
  8.4000000000000004  4.0000000000000000 20.6000000000000014   T   T   T
 10.5000000000000000  4.0000000000000000 22.7000000000000028   T   T   T
  8.4000000000000004  6.0000000000000000 22.7000000000000028   T   T   T
 10.5000000000000000  6.0000000000000000 20.6000000000000014   T   T   T
  8.4000000000000004  0.0000000000000000 22.7000000000000028   T   T   T
 10.5000000000000000  2.0000000000000000 22.7000000000000028   T   T   T
 10.5000000000000000  4.0000000000000000 20.6000000000000014   T   T   T
  8.4000000000000004  6.0000000000000000 20.6000000000000014   T   T   T
  8.4000000000000004  8.0000000000000000  8.0000000000000000   F   F   F
 10.5000000000000000  8.0000000000000000 10.0999999999999996   F   F   F
  8.4000000000000004 10.0000000000000000 10.0999999999999996   F   F   F
 10.5000000000000000 10.0000000000000000  8.0000000000000000   F   F   F
  8.4000000000000004 12.0000000000000000  8.0000000000000000   F   F   F
 10.5000000000000000 12.0000000000000000 10.0999999999999996   F   F   F
  8.4000000000000004 14.0000000000000000 10.0999999999999996   F   F   F
 10.5000000000000000 14.0000000000000000  8.0000000000000000   F   F   F
  8.4000000000000004  8.0000000000000000 10.0999999999999996   F   F   F
 10.5000000000000000 10.0000000000000000 10.0999999999999996   F   F   F
 10.5000000000000000 12.0000000000000000  8.0000000000000000   F   F   F
  8.4000000000000004 14.0000000000000000  8.0000000000000000   F   F   F
  8.4000000000000004  8.0000000000000000 12.1999999999999993   F   F   F
 10.5000000000000000  8.0000000000000000 14.3000000000000007   F   F   F
  8.4000000000000004 10.0000000000000000 14.3000000000000007   F   F   F
 10.5000000000000000 10.0000000000000000 12.1999999999999993   F   F   F
  8.4000000000000004 12.0000000000000000 12.1999999999999993   F   F   F
 10.5000000000000000 12.0000000000000000 14.3000000000000007   F   F   F
  8.4000000000000004 14.0000000000000000 14.3000000000000007   F   F   F
 10.5000000000000000 14.0000000000000000 12.1999999999999993   F   F   F
  8.4000000000000004  8.0000000000000000 14.3000000000000007   F   F   F
 10.5000000000000000 10.0000000000000000 14.3000000000000007   F   F   F
 10.5000000000000000 12.0000000000000000 12.1999999999999993   F   F   F
  8.4000000000000004 14.0000000000000000 12.1999999999999993   F   F   F
  8.4000000000000004  8.0000000000000000 16.3999999999999986   T   T   T
 10.5000000000000000  8.0000000000000000 18.5000000000000000   T   T   T
  8.4000000000000004 10.0000000000000000 18.5000000000000000   T   T   T
 10.5000000000000000 10.0000000000000000 16.3999999999999986   T   T   T
  8.4000000000000004 12.0000000000000000 16.3999999999999986   T   T   T
 10.5000000000000000 12.0000000000000000 18.5000000000000000   T   T   T
  8.4000000000000004 14.0000000000000000 18.5000000000000000   T   T   T
 10.5000000000000000 14.0000000000000000 16.3999999999999986   T   T   T
  8.4000000000000004  8.0000000000000000 18.5000000000000000   T   T   T
 10.5000000000000000 10.0000000000000000 18.5000000000000000   T   T   T
 10.5000000000000000 12.0000000000000000 16.3999999999999986   T   T   T
  8.4000000000000004 14.0000000000000000 16.3999999999999986   T   T   T
  8.4000000000000004  8.0000000000000000 20.6000000000000014   T   T   T
 10.5000000000000000  8.0000000000000000 22.7000000000000028   T   T   T
  8.4000000000000004 10.0000000000000000 22.7000000000000028   T   T   T
 10.5000000000000000 10.0000000000000000 20.6000000000000014   T   T   T
  8.4000000000000004 12.0000000000000000 20.6000000000000014   T   T   T
 10.5000000000000000 12.0000000000000000 22.7000000000000028   T   T   T
  8.4000000000000004 14.0000000000000000 22.7000000000000028   T   T   T
 10.5000000000000000 14.0000000000000000 20.6000000000000014   T   T   T
  8.4000000000000004  8.0000000000000000 22.7000000000000028   T   T   T
 10.5000000000000000 10.0000000000000000 22.7000000000000028   T   T   T
 10.5000000000000000 12.0000000000000000 20.6000000000000014   T   T   T
  8.4000000000000004 14.0000000000000000 20.6000000000000014   T   T   T
  8.4000000000000004 16.0000000000000000  8.0000000000000000   F   F   F
 10.5000000000000000 16.0000000000000000 10.0999999999999996   F   F   F
  8.4000000000000004 18.0000000000000000 10.0999999999999996   F   F   F
 10.5000000000000000 18.0000000000000000  8.0000000000000000   F   F   F
  8.4000000000000004 20.0000000000000000  8.0000000000000000   F   F   F
 10.5000000000000000 20.0000000000000000 10.0999999999999996   F   F   F
  8.4000000000000004 22.0000000000000000 10.0999999999999996   F   F   F
 10.5000000000000000 22.0000000000000000  8.0000000000000000   F   F   F
  8.4000000000000004 16.0000000000000000 10.0999999999999996   F   F   F
 10.5000000000000000 18.0000000000000000 10.0999999999999996   F   F   F
 10.5000000000000000 20.0000000000000000  8.0000000000000000   F   F   F
  8.4000000000000004 22.0000000000000000  8.0000000000000000   F   F   F
  8.4000000000000004 16.0000000000000000 12.1999999999999993   F   F   F
 10.5000000000000000 16.0000000000000000 14.3000000000000007   F   F   F
  8.4000000000000004 18.0000000000000000 14.3000000000000007   F   F   F
 10.5000000000000000 18.0000000000000000 12.1999999999999993   F   F   F
  8.4000000000000004 20.0000000000000000 12.1999999999999993   F   F   F
 10.5000000000000000 20.0000000000000000 14.3000000000000007   F   F   F
  8.4000000000000004 22.0000000000000000 14.3000000000000007   F   F   F
 10.5000000000000000 22.0000000000000000 12.1999999999999993   F   F   F
  8.4000000000000004 16.0000000000000000 14.3000000000000007   F   F   F
 10.5000000000000000 18.0000000000000000 14.3000000000000007   F   F   F
 10.5000000000000000 20.0000000000000000 12.1999999999999993   F   F   F
  8.4000000000000004 22.0000000000000000 12.1999999999999993   F   F   F
  8.4000000000000004 16.0000000000000000 16.3999999999999986   T   T   T
 10.5000000000000000 16.0000000000000000 18.5000000000000000   T   T   T
  8.4000000000000004 18.0000000000000000 18.5000000000000000   T   T   T
 10.5000000000000000 18.0000000000000000 16.3999999999999986   T   T   T
  8.4000000000000004 20.0000000000000000 16.3999999999999986   T   T   T
 10.5000000000000000 20.0000000000000000 18.5000000000000000   T   T   T
  8.4000000000000004 22.0000000000000000 18.5000000000000000   T   T   T
 10.5000000000000000 22.0000000000000000 16.3999999999999986   T   T   T
  8.4000000000000004 16.0000000000000000 18.5000000000000000   T   T   T
 10.5000000000000000 18.0000000000000000 18.5000000000000000   T   T   T
 10.5000000000000000 20.0000000000000000 16.3999999999999986   T   T   T
  8.4000000000000004 22.0000000000000000 16.3999999999999986   T   T   T
  8.4000000000000004 16.0000000000000000 20.6000000000000014   T   T   T
 10.5000000000000000 16.0000000000000000 22.7000000000000028   T   T   T
  8.4000000000000004 18.0000000000000000 22.7000000000000028   T   T   T
 10.5000000000000000 18.0000000000000000 20.6000000000000014   T   T   T
  8.4000000000000004 20.0000000000000000 20.6000000000000014   T   T   T
 10.5000000000000000 20.0000000000000000 22.7000000000000028   T   T   T
  8.4000000000000004 22.0000000000000000 22.7000000000000028   T   T   T
 10.5000000000000000 22.0000000000000000 20.6000000000000014   T   T   T
  8.4000000000000004 16.0000000000000000 22.7000000000000028   T   T   T
 10.5000000000000000 18.0000000000000000 22.7000000000000028   T   T   T
 10.5000000000000000 20.0000000000000000 20.6000000000000014   T   T   T
  8.4000000000000004 22.0000000000000000 20.6000000000000014   T   T   T
