Mo P  Mo P  Mo P  Mo P  Mo P  Mo P  Mo P  Mo P  Mo P  Mo P  Mo P  Mo P  Mo P  Mo P  Mo P  Mo P  Mo
 1.0000000000000000
    63.4146882017290636    0.0000000000000000    0.0000000000000039
    -3.2299999999999982    5.5945241084474748    0.0000000000000004
     0.0000000000000000    0.0000000000000000   24.8150000000000048
 Mo  P   Mo  P   Mo  P   Mo  P   Mo  P   Mo  P   Mo  P   Mo  P   Mo  P   Mo  P   Mo  P   Mo  P   Mo  P   Mo  P   Mo  P   Mo  P   Mo 
   4   1   1   1   1   1   1   1   1   1   1   1   1   1   1   1   1   1   1   1   1   1   1   1   1   1   1   1   1   1   1   1   5
Selective dynamics
Cartesian
 23.0940107674235264  1.8648413695757335 11.6050000000000022   F   F   F
 23.0940107674235264  1.8648413695757335 14.8150000000000031   T   T   T
 21.4790107674235280  4.6621034237994712 11.6050000000000022   F   F   F
 21.4790107674235280  4.6621034237994712 14.8150000000000031   T   T   T
 26.3240107675850261  0.0000000000000000 10.0000000000000018   F   F   F
 26.3240107674235269  1.8648413695757335 11.6050000000000022   F   F   F
 26.3240107675850261  0.0000000000000000 13.2100000000000026   T   T   T
 26.3240107674235269  1.8648413695757335 14.8150000000000031   T   T   T
 24.7090107675850277  2.7972620542237374 10.0000000000000053   F   F   F
 24.7090107674235284  4.6621034237994712 11.6050000000000022   F   F   F
 24.7090107675850277  2.7972620542237374 13.2100000000000026   T   T   T
 24.7090107674235284  4.6621034237994712 14.8150000000000031   T   T   T
 29.5540107675850265  0.0000000000000000 10.0000000000000053   F   F   F
 29.5540107674235273  1.8648413695757335 11.6050000000000022   F   F   F
 29.5540107675850265  0.0000000000000000 13.2100000000000026   T   T   T
 29.5540107674235273  1.8648413695757335 14.8150000000000031   T   T   T
 27.9390107675850246  2.7972620542237374 10.0000000000000053   F   F   F
 27.9390107674235253  4.6621034237994712 11.6050000000000058   F   F   F
 27.9390107675850246  2.7972620542237374 13.2100000000000026   T   T   T
 27.9390107674235253  4.6621034237994712 14.8150000000000031   T   T   T
 32.7840107675850234  0.0000000000000000 10.0000000000000053   F   F   F
 32.7840107674235242  1.8648413695757335 11.6050000000000058   F   F   F
 32.7840107675850234  0.0000000000000000 13.2100000000000026   T   T   T
 32.7840107674235242  1.8648413695757335 14.8150000000000031   T   T   T
 31.1690107675850285  2.7972620542237374 10.0000000000000053   F   F   F
 31.1690107674235293  4.6621034237994712 11.6050000000000058   F   F   F
 31.1690107675850285  2.7972620542237374 13.2100000000000026   T   T   T
 31.1690107674235293  4.6621034237994712 14.8150000000000066   T   T   T
 36.0140107675850274  0.0000000000000000 10.0000000000000053   F   F   F
 36.0140107674235281  1.8648413695757335 11.6050000000000058   F   F   F
 36.0140107675850274  0.0000000000000000 13.2100000000000026   T   T   T
 36.0140107674235281  1.8648413695757335 14.8150000000000066   T   T   T
 34.3990107675850254  2.7972620542237374 10.0000000000000053   F   F   F
 34.3990107674235261  4.6621034237994712 11.6050000000000058   F   F   F
 34.3990107675850254  2.7972620542237374 13.2100000000000026   T   T   T
 34.3990107674235261  4.6621034237994712 14.8150000000000066   T   T   T
 39.2440107674235250  1.8648413695757335 11.6050000000000058   F   F   F
 39.2440107674235250  1.8648413695757335 14.8150000000000066   T   T   T
 37.6290107674235230  4.6621034237994712 11.6050000000000058   F   F   F
 37.6290107674235230  4.6621034237994712 14.8150000000000066   T   T   T
