Ni Mo S  Ru
 1.0000000000000000
    14.5133318021741644    0.0000000000000000    0.0000000000000009
     2.9880389004476271   24.3311739036449204    0.0000000000000015
     0.0000000000000000    0.0000000000000000   52.5239450000000119
 Ni  Mo  S   Ru 
 456 164 328   4
Selective dynamics
Cartesian
 14.0864691021102217 23.4774485035170244 20.2336856434599284   T   T   T
 16.2207826024299528 22.1968604033251857 20.2336856434599284   T   T   T
  8.5372540012789244 23.9043112035809742 20.2336856434599284   T   T   T
 10.6715675015986555 22.6237231033891426 20.2336856434599284   T   T   T
 12.8058810019183813 21.3431350031972968 20.2336856434599284   T   T   T
 14.9401945022381177 20.0625469030054582 20.2336856434599284   T   T   T
  5.1223524007673582 23.0505858034530853 20.2336856434599248   T   T   T
  7.2566659010870858 21.7699977032612466 20.2336856434599248   T   T   T
  9.3909794014068133 20.4894096030694080 20.2336856434599248   T   T   T
 11.5252929017265462 19.2088215028775728 20.2336856434599248   T   T   T
 13.6596064020462755 17.9282334026857342 20.2336856434599284   T   T   T
 15.7939199023660031 16.6476453024938920 20.2336856434599284   T   T   T
  3.8417643005755178 20.9162723031333542 20.2336856434599248   T   T   T
  5.9760778008952471 19.6356842029415120 20.2336856434599248   T   T   T
  8.1103913012149746 18.3550961027496804 20.2336856434599248   T   T   T
 10.2447048015347075 17.0745080025578417 20.2336856434599248   T   T   T
 12.3790183018544386 15.7939199023659995 20.2336856434599248   T   T   T
 14.5133318021741697 14.5133318021741626 20.2336856434599248   T   T   T
  2.5611762003836791 18.7819588028136231 20.2336856434599248   T   T   T
  4.6954897007034102 17.5013707026217844 20.2336856434599248   T   T   T
  6.8298032010231395 16.2207826024299457 20.2336856434599248   T   T   T
  8.9641167013428671 14.9401945022381089 20.2336856434599248   T   T   T
 11.0984302016626017 13.6596064020462684 20.2336856434599248   T   T   T
 13.2327437019823257 12.3790183018544315 20.2336856434599248   T   T   T
 15.3670572023020586 11.0984302016625946 20.2336856434599248   T   T   T
  3.4149016005115702 15.3670572023020533 20.2336856434599248   T   T   T
  5.5492151008313000 14.0864691021102182 20.2336856434599248   T   T   T
  7.6835286011510320 12.8058810019183777 20.2336856434599248   T   T   T
  9.8178421014707595 11.5252929017265426 20.2336856434599248   T   T   T
 11.9521556017904906 10.2447048015347022 20.2336856434599248   T   T   T
 14.0864691021102217  8.9641167013428671 20.2336856434599248   T   T   T
  2.1343135003197320 13.2327437019823257 20.2336856434599248   T   T   T
  4.2686270006394622 11.9521556017904871 20.2336856434599248   T   T   T
  6.4029405009591907 10.6715675015986484 20.2336856434599248   T   T   T
  8.5372540012789226  9.3909794014068115 20.2336856434599248   T   T   T
 10.6715675015986537  8.1103913012149746 20.2336856434599248   T   T   T
 12.8058810019183795  6.8298032010231351 20.2336856434599248   T   T   T
 14.9401945022381089  5.5492151008312982 20.2336856434599248   T   T   T
  2.9880389004476235  9.8178421014707560 20.2336856434599248   T   T   T
  5.1223524007673538  8.5372540012789209 20.2336856434599248   T   T   T
  7.2566659010870849  7.2566659010870813 20.2336856434599248   T   T   T
  9.3909794014068151  5.9760778008952435 20.2336856434599248   T   T   T
 11.5252929017265409  4.6954897007034058 20.2336856434599248   T   T   T
 13.6596064020462755  3.4149016005115684 20.2336856434599248   T   T   T
  1.7074508002557851  7.6835286011510266 20.2336856434599248   T   T   T
  3.8417643005755160  6.4029405009591889 20.2336856434599248   T   T   T
  5.9760778008952453  5.1223524007673511 20.2336856434599248   T   T   T
  8.1103913012149746  3.8417643005755142 20.2336856434599248   T   T   T
 10.2447048015347058  2.5611762003836751 20.2336856434599248   T   T   T
 12.3790183018544351  1.2805881001918378 20.2336856434599248   T   T   T
  2.5611762003836769  4.2686270006394604 20.2336856434599248   T   T   T
  4.6954897007034075  2.9880389004476218 20.2336856434599248   T   T   T
  6.8298032010231378  1.7074508002557842 20.2336856434599248   T   T   T
  8.9641167013428689  0.4268627000639463 20.2336856434599248   T   T   T
  1.2805881001918384  2.1343135003197302 20.2336856434599248   T   T   T
  3.4149016005115689  0.8537254001278921 20.2336856434599248   T   T   T
  0.0000000000000000  0.0000000000000000 20.2336856434599248   T   T   T
 14.5133318021741680 21.7699977032612431 21.9936856434599228   T   T   T
 16.6476453024939026 20.4894096030694044 21.9936856434599228   T   T   T
  8.9641167013428671 22.1968604033251857 21.9936856434599193   T   T   T
 11.0984302016626017 20.9162723031333542 21.9936856434599228   T   T   T
 13.2327437019823293 19.6356842029415155 21.9936856434599228   T   T   T
 15.3670572023020586 18.3550961027496768 21.9936856434599228   T   T   T
  5.5492151008313026 21.3431350031973039 21.9936856434599193   T   T   T
  7.6835286011510302 20.0625469030054653 21.9936856434599193   T   T   T
  9.8178421014707631 18.7819588028136231 21.9936856434599193   T   T   T
 11.9521556017904924 17.5013707026217880 21.9936856434599193   T   T   T
 14.0864691021102200 16.2207826024299493 21.9936856434599193   T   T   T
 16.2207826024299493 14.9401945022381089 21.9936856434599228   T   T   T
  4.2686270006394631 19.2088215028775728 21.9936856434599193   T   T   T
  6.4029405009591915 17.9282334026857342 21.9936856434599193   T   T   T
  8.5372540012789209 16.6476453024938955 21.9936856434599193   T   T   T
 10.6715675015986537 15.3670572023020533 21.9936856434599193   T   T   T
 12.8058810019183866 14.0864691021102182 21.9936856434599193   T   T   T
 14.9401945022381124 12.8058810019183777 21.9936856434599193   T   T   T
  2.9880389004476253 17.0745080025578417 21.9936856434599193   T   T   T
  5.1223524007673555 15.7939199023659995 21.9936856434599193   T   T   T
  7.2566659010870840 14.5133318021741644 21.9936856434599193   T   T   T
  9.3909794014068133 13.2327437019823222 21.9936856434599193   T   T   T
 11.5252929017265480 11.9521556017904871 21.9936856434599193   T   T   T
 13.6596064020462720 10.6715675015986466 21.9936856434599193   T   T   T
  1.2805881001918400  9.3909794014068098 21.9936856434599193   T   T   T
  3.8417643005755169 13.6596064020462702 21.9936856434599193   T   T   T
  5.9760778008952462 12.3790183018544333 21.9936856434599193   T   T   T
  8.1103913012149764 11.0984302016625946 21.9936856434599193   T   T   T
 10.2447048015347040  9.8178421014707560 21.9936856434599193   T   T   T
 12.3790183018544369  8.5372540012789209 21.9936856434599193   T   T   T
 14.5133318021741662  7.2566659010870822 21.9936856434599193   T   T   T
  2.5611762003836782 11.5252929017265426 21.9936856434599193   T   T   T
  4.6954897007034067 10.2447048015347022 21.9936856434599193   T   T   T
  6.8298032010231378  8.9641167013428671 21.9936856434599193   T   T   T
  8.9641167013428689  7.6835286011510266 21.9936856434599193   T   T   T
 11.0984302016625964  6.4029405009591907 21.9936856434599193   T   T   T
 13.2327437019823275  5.1223524007673520 21.9936856434599193   T   T   T
  0.8537254001278940  3.8417643005755133 21.9936856434599193   T   T   T
  3.4149016005115698  8.1103913012149729 21.9936856434599193   T   T   T
  5.5492151008313000  6.8298032010231351 21.9936856434599193   T   T   T
  7.6835286011510293  5.5492151008312973 21.9936856434599193   T   T   T
  9.8178421014707560  4.2686270006394595 21.9936856434599193   T   T   T
 11.9521556017904889  2.9880389004476218 21.9936856434599193   T   T   T
 14.0864691021102217  1.7074508002557844 21.9936856434599193   T   T   T
  2.1343135003197315  5.9760778008952435 21.9936856434599193   T   T   T
  4.2686270006394613  4.6954897007034058 21.9936856434599193   T   T   T
  6.4029405009591915  3.4149016005115675 21.9936856434599193   T   T   T
  8.5372540012789209  2.1343135003197302 21.9936856434599193   T   T   T
 10.6715675015986520  0.8537254001278912 21.9936856434599193   T   T   T
 15.7939199023660066 23.9043112035809742 21.9936856434599228   T   T   T
  2.9880389004476227  2.5611762003836755 21.9936856434599193   T   T   T
  5.1223524007673529  1.2805881001918376 21.9936856434599193   T   T   T
  7.2566659010870840  0.0000000000000003 21.9936856434599193   T   T   T
 12.3790183018544369 23.0505858034530853 21.9936856434599228   T   T   T
  1.7074508002557842  0.4268627000639459 21.9936856434599193   T   T   T
  6.8298032010231413 23.4774485035170279 21.9936856434599193   T   T   T
  3.4149016005115715 22.6237231033891391 21.9936856434599193   T   T   T
 14.0864691021102217 23.4774485035170244 16.7136856434599217   T   T   T
 16.2207826024299528 22.1968604033251857 16.7136856434599217   T   T   T
  8.5372540012789244 23.9043112035809742 16.7136856434599217   T   T   T
 10.6715675015986555 22.6237231033891426 16.7136856434599217   T   T   T
 12.8058810019183813 21.3431350031972968 16.7136856434599217   T   T   T
 14.9401945022381177 20.0625469030054582 16.7136856434599217   T   T   T
  5.1223524007673582 23.0505858034530853 16.7136856434599181   T   T   T
  7.2566659010870858 21.7699977032612466 16.7136856434599181   T   T   T
  9.3909794014068133 20.4894096030694080 16.7136856434599181   T   T   T
 11.5252929017265462 19.2088215028775728 16.7136856434599181   T   T   T
 13.6596064020462755 17.9282334026857342 16.7136856434599217   T   T   T
 15.7939199023660031 16.6476453024938920 16.7136856434599217   T   T   T
  3.8417643005755178 20.9162723031333542 16.7136856434599181   T   T   T
  5.9760778008952471 19.6356842029415120 16.7136856434599181   T   T   T
  8.1103913012149746 18.3550961027496804 16.7136856434599181   T   T   T
 10.2447048015347075 17.0745080025578417 16.7136856434599181   T   T   T
 12.3790183018544386 15.7939199023659995 16.7136856434599181   T   T   T
 14.5133318021741697 14.5133318021741626 16.7136856434599181   T   T   T
  2.5611762003836791 18.7819588028136231 16.7136856434599181   T   T   T
  4.6954897007034102 17.5013707026217844 16.7136856434599181   T   T   T
  6.8298032010231395 16.2207826024299457 16.7136856434599181   T   T   T
  8.9641167013428671 14.9401945022381089 16.7136856434599181   T   T   T
 11.0984302016626017 13.6596064020462684 16.7136856434599181   T   T   T
 13.2327437019823257 12.3790183018544315 16.7136856434599181   T   T   T
 15.3670572023020586 11.0984302016625946 16.7136856434599181   T   T   T
  3.4149016005115702 15.3670572023020533 16.7136856434599181   T   T   T
  5.5492151008313000 14.0864691021102182 16.7136856434599181   T   T   T
  7.6835286011510320 12.8058810019183777 16.7136856434599181   T   T   T
  9.8178421014707595 11.5252929017265426 16.7136856434599181   T   T   T
 11.9521556017904906 10.2447048015347022 16.7136856434599181   T   T   T
 14.0864691021102217  8.9641167013428671 16.7136856434599181   T   T   T
  2.1343135003197320 13.2327437019823257 16.7136856434599181   T   T   T
  4.2686270006394622 11.9521556017904871 16.7136856434599181   T   T   T
  6.4029405009591907 10.6715675015986484 16.7136856434599181   T   T   T
  8.5372540012789226  9.3909794014068115 16.7136856434599181   T   T   T
 10.6715675015986537  8.1103913012149746 16.7136856434599181   T   T   T
 12.8058810019183795  6.8298032010231351 16.7136856434599181   T   T   T
 14.9401945022381089  5.5492151008312982 16.7136856434599181   T   T   T
  2.9880389004476235  9.8178421014707560 16.7136856434599181   T   T   T
  5.1223524007673538  8.5372540012789209 16.7136856434599181   T   T   T
  7.2566659010870849  7.2566659010870813 16.7136856434599181   T   T   T
  9.3909794014068151  5.9760778008952435 16.7136856434599181   T   T   T
 11.5252929017265409  4.6954897007034058 16.7136856434599181   T   T   T
 13.6596064020462755  3.4149016005115684 16.7136856434599181   T   T   T
  1.7074508002557851  7.6835286011510266 16.7136856434599181   T   T   T
  3.8417643005755160  6.4029405009591889 16.7136856434599181   T   T   T
  5.9760778008952453  5.1223524007673511 16.7136856434599181   T   T   T
  8.1103913012149746  3.8417643005755142 16.7136856434599181   T   T   T
 10.2447048015347058  2.5611762003836751 16.7136856434599181   T   T   T
 12.3790183018544351  1.2805881001918378 16.7136856434599181   T   T   T
  2.5611762003836769  4.2686270006394604 16.7136856434599181   T   T   T
  4.6954897007034075  2.9880389004476218 16.7136856434599181   T   T   T
  6.8298032010231378  1.7074508002557842 16.7136856434599181   T   T   T
  8.9641167013428689  0.4268627000639463 16.7136856434599181   T   T   T
  1.2805881001918384  2.1343135003197302 16.7136856434599181   T   T   T
  3.4149016005115689  0.8537254001278921 16.7136856434599181   T   T   T
  0.0000000000000000  0.0000000000000000 16.7136856434599181   T   T   T
 14.5133318021741680 21.7699977032612431 18.4736856434599233   T   T   T
 16.6476453024939026 20.4894096030694044 18.4736856434599233   T   T   T
  8.9641167013428671 22.1968604033251857 18.4736856434599197   T   T   T
 11.0984302016626017 20.9162723031333542 18.4736856434599233   T   T   T
 13.2327437019823293 19.6356842029415155 18.4736856434599233   T   T   T
 15.3670572023020586 18.3550961027496768 18.4736856434599233   T   T   T
  5.5492151008313026 21.3431350031973039 18.4736856434599197   T   T   T
  7.6835286011510302 20.0625469030054653 18.4736856434599197   T   T   T
  9.8178421014707631 18.7819588028136231 18.4736856434599197   T   T   T
 11.9521556017904924 17.5013707026217880 18.4736856434599197   T   T   T
 14.0864691021102200 16.2207826024299493 18.4736856434599197   T   T   T
 16.2207826024299493 14.9401945022381089 18.4736856434599233   T   T   T
  4.2686270006394631 19.2088215028775728 18.4736856434599197   T   T   T
  6.4029405009591915 17.9282334026857342 18.4736856434599197   T   T   T
  8.5372540012789209 16.6476453024938955 18.4736856434599197   T   T   T
 10.6715675015986537 15.3670572023020533 18.4736856434599197   T   T   T
 12.8058810019183866 14.0864691021102182 18.4736856434599197   T   T   T
 14.9401945022381124 12.8058810019183777 18.4736856434599197   T   T   T
  2.9880389004476253 17.0745080025578417 18.4736856434599197   T   T   T
  5.1223524007673555 15.7939199023659995 18.4736856434599197   T   T   T
  7.2566659010870840 14.5133318021741644 18.4736856434599197   T   T   T
  9.3909794014068133 13.2327437019823222 18.4736856434599197   T   T   T
 11.5252929017265480 11.9521556017904871 18.4736856434599197   T   T   T
 13.6596064020462720 10.6715675015986466 18.4736856434599197   T   T   T
  1.2805881001918400  9.3909794014068098 18.4736856434599197   T   T   T
  3.8417643005755169 13.6596064020462702 18.4736856434599197   T   T   T
  5.9760778008952462 12.3790183018544333 18.4736856434599197   T   T   T
  8.1103913012149764 11.0984302016625946 18.4736856434599197   T   T   T
 10.2447048015347040  9.8178421014707560 18.4736856434599197   T   T   T
 12.3790183018544369  8.5372540012789209 18.4736856434599197   T   T   T
 14.5133318021741662  7.2566659010870822 18.4736856434599197   T   T   T
  2.5611762003836782 11.5252929017265426 18.4736856434599197   T   T   T
  4.6954897007034067 10.2447048015347022 18.4736856434599197   T   T   T
  6.8298032010231378  8.9641167013428671 18.4736856434599197   T   T   T
  8.9641167013428689  7.6835286011510266 18.4736856434599197   T   T   T
 11.0984302016625964  6.4029405009591907 18.4736856434599197   T   T   T
 13.2327437019823275  5.1223524007673520 18.4736856434599197   T   T   T
  0.8537254001278940  3.8417643005755133 18.4736856434599197   T   T   T
  3.4149016005115698  8.1103913012149729 18.4736856434599197   T   T   T
  5.5492151008313000  6.8298032010231351 18.4736856434599197   T   T   T
  7.6835286011510293  5.5492151008312973 18.4736856434599197   T   T   T
  9.8178421014707560  4.2686270006394595 18.4736856434599197   T   T   T
 11.9521556017904889  2.9880389004476218 18.4736856434599197   T   T   T
 14.0864691021102217  1.7074508002557844 18.4736856434599197   T   T   T
  2.1343135003197315  5.9760778008952435 18.4736856434599197   T   T   T
  4.2686270006394613  4.6954897007034058 18.4736856434599197   T   T   T
  6.4029405009591915  3.4149016005115675 18.4736856434599197   T   T   T
  8.5372540012789209  2.1343135003197302 18.4736856434599197   T   T   T
 10.6715675015986520  0.8537254001278912 18.4736856434599197   T   T   T
 15.7939199023660066 23.9043112035809742 18.4736856434599233   T   T   T
  2.9880389004476227  2.5611762003836755 18.4736856434599197   T   T   T
  5.1223524007673529  1.2805881001918376 18.4736856434599197   T   T   T
  7.2566659010870840  0.0000000000000003 18.4736856434599197   T   T   T
 12.3790183018544369 23.0505858034530853 18.4736856434599233   T   T   T
  1.7074508002557842  0.4268627000639459 18.4736856434599197   T   T   T
  6.8298032010231413 23.4774485035170279 18.4736856434599197   T   T   T
  3.4149016005115715 22.6237231033891391 18.4736856434599197   T   T   T
 14.0864691021102217 23.4774485035170244 13.1936856434599168   F   F   F
 16.2207826024299528 22.1968604033251857 13.1936856434599168   F   F   F
  8.5372540012789244 23.9043112035809742 13.1936856434599168   F   F   F
 10.6715675015986555 22.6237231033891426 13.1936856434599168   F   F   F
 12.8058810019183813 21.3431350031972968 13.1936856434599168   F   F   F
 14.9401945022381177 20.0625469030054582 13.1936856434599168   F   F   F
  5.1223524007673582 23.0505858034530853 13.1936856434599168   F   F   F
  7.2566659010870858 21.7699977032612466 13.1936856434599168   F   F   F
  9.3909794014068133 20.4894096030694080 13.1936856434599168   F   F   F
 11.5252929017265462 19.2088215028775728 13.1936856434599168   F   F   F
 13.6596064020462755 17.9282334026857342 13.1936856434599168   F   F   F
 15.7939199023660031 16.6476453024938920 13.1936856434599168   F   F   F
  3.8417643005755178 20.9162723031333542 13.1936856434599168   F   F   F
  5.9760778008952471 19.6356842029415120 13.1936856434599168   F   F   F
  8.1103913012149746 18.3550961027496804 13.1936856434599168   F   F   F
 10.2447048015347075 17.0745080025578417 13.1936856434599168   F   F   F
 12.3790183018544386 15.7939199023659995 13.1936856434599168   F   F   F
 14.5133318021741697 14.5133318021741626 13.1936856434599168   F   F   F
  2.5611762003836791 18.7819588028136231 13.1936856434599168   F   F   F
  4.6954897007034102 17.5013707026217844 13.1936856434599168   F   F   F
  6.8298032010231395 16.2207826024299457 13.1936856434599168   F   F   F
  8.9641167013428671 14.9401945022381089 13.1936856434599168   F   F   F
 11.0984302016626017 13.6596064020462684 13.1936856434599168   F   F   F
 13.2327437019823257 12.3790183018544315 13.1936856434599168   F   F   F
 15.3670572023020586 11.0984302016625946 13.1936856434599168   F   F   F
  3.4149016005115702 15.3670572023020533 13.1936856434599168   F   F   F
  5.5492151008313000 14.0864691021102182 13.1936856434599168   F   F   F
  7.6835286011510320 12.8058810019183777 13.1936856434599168   F   F   F
  9.8178421014707595 11.5252929017265426 13.1936856434599168   F   F   F
 11.9521556017904906 10.2447048015347022 13.1936856434599168   F   F   F
 14.0864691021102217  8.9641167013428671 13.1936856434599168   F   F   F
  2.1343135003197320 13.2327437019823257 13.1936856434599150   F   F   F
  4.2686270006394622 11.9521556017904871 13.1936856434599168   F   F   F
  6.4029405009591907 10.6715675015986484 13.1936856434599168   F   F   F
  8.5372540012789226  9.3909794014068115 13.1936856434599168   F   F   F
 10.6715675015986537  8.1103913012149746 13.1936856434599168   F   F   F
 12.8058810019183795  6.8298032010231351 13.1936856434599168   F   F   F
 14.9401945022381089  5.5492151008312982 13.1936856434599168   F   F   F
  2.9880389004476235  9.8178421014707560 13.1936856434599150   F   F   F
  5.1223524007673538  8.5372540012789209 13.1936856434599150   F   F   F
  7.2566659010870849  7.2566659010870813 13.1936856434599150   F   F   F
  9.3909794014068151  5.9760778008952435 13.1936856434599168   F   F   F
 11.5252929017265409  4.6954897007034058 13.1936856434599168   F   F   F
 13.6596064020462755  3.4149016005115684 13.1936856434599168   F   F   F
  1.7074508002557851  7.6835286011510266 13.1936856434599150   F   F   F
  3.8417643005755160  6.4029405009591889 13.1936856434599150   F   F   F
  5.9760778008952453  5.1223524007673511 13.1936856434599150   F   F   F
  8.1103913012149746  3.8417643005755142 13.1936856434599150   F   F   F
 10.2447048015347058  2.5611762003836751 13.1936856434599150   F   F   F
 12.3790183018544351  1.2805881001918378 13.1936856434599150   F   F   F
  2.5611762003836769  4.2686270006394604 13.1936856434599150   F   F   F
  4.6954897007034075  2.9880389004476218 13.1936856434599150   F   F   F
  6.8298032010231378  1.7074508002557842 13.1936856434599150   F   F   F
  8.9641167013428689  0.4268627000639463 13.1936856434599150   F   F   F
  1.2805881001918384  2.1343135003197302 13.1936856434599150   F   F   F
  3.4149016005115689  0.8537254001278921 13.1936856434599150   F   F   F
  0.0000000000000000  0.0000000000000000 13.1936856434599150   F   F   F
 14.5133318021741680 21.7699977032612431 14.9536856434599201   F   F   F
 16.6476453024939026 20.4894096030694044 14.9536856434599201   F   F   F
  8.9641167013428671 22.1968604033251857 14.9536856434599201   F   F   F
 11.0984302016626017 20.9162723031333542 14.9536856434599201   F   F   F
 13.2327437019823293 19.6356842029415155 14.9536856434599201   F   F   F
 15.3670572023020586 18.3550961027496768 14.9536856434599201   F   F   F
  5.5492151008313026 21.3431350031973039 14.9536856434599201   F   F   F
  7.6835286011510302 20.0625469030054653 14.9536856434599201   F   F   F
  9.8178421014707631 18.7819588028136231 14.9536856434599201   F   F   F
 11.9521556017904924 17.5013707026217880 14.9536856434599201   F   F   F
 14.0864691021102200 16.2207826024299493 14.9536856434599201   F   F   F
 16.2207826024299493 14.9401945022381089 14.9536856434599201   F   F   F
  4.2686270006394631 19.2088215028775728 14.9536856434599201   F   F   F
  6.4029405009591915 17.9282334026857342 14.9536856434599201   F   F   F
  8.5372540012789209 16.6476453024938955 14.9536856434599201   F   F   F
 10.6715675015986537 15.3670572023020533 14.9536856434599201   F   F   F
 12.8058810019183866 14.0864691021102182 14.9536856434599201   F   F   F
 14.9401945022381124 12.8058810019183777 14.9536856434599201   F   F   F
  2.9880389004476253 17.0745080025578417 14.9536856434599201   F   F   F
  5.1223524007673555 15.7939199023659995 14.9536856434599201   F   F   F
  7.2566659010870840 14.5133318021741644 14.9536856434599201   F   F   F
  9.3909794014068133 13.2327437019823222 14.9536856434599201   F   F   F
 11.5252929017265480 11.9521556017904871 14.9536856434599201   F   F   F
 13.6596064020462720 10.6715675015986466 14.9536856434599201   F   F   F
  1.2805881001918400  9.3909794014068098 14.9536856434599184   F   F   F
  3.8417643005755169 13.6596064020462702 14.9536856434599201   F   F   F
  5.9760778008952462 12.3790183018544333 14.9536856434599201   F   F   F
  8.1103913012149764 11.0984302016625946 14.9536856434599201   F   F   F
 10.2447048015347040  9.8178421014707560 14.9536856434599201   F   F   F
 12.3790183018544369  8.5372540012789209 14.9536856434599201   F   F   F
 14.5133318021741662  7.2566659010870822 14.9536856434599201   F   F   F
  2.5611762003836782 11.5252929017265426 14.9536856434599184   F   F   F
  4.6954897007034067 10.2447048015347022 14.9536856434599184   F   F   F
  6.8298032010231378  8.9641167013428671 14.9536856434599201   F   F   F
  8.9641167013428689  7.6835286011510266 14.9536856434599201   F   F   F
 11.0984302016625964  6.4029405009591907 14.9536856434599201   F   F   F
 13.2327437019823275  5.1223524007673520 14.9536856434599201   F   F   F
  0.8537254001278940  3.8417643005755133 14.9536856434599184   F   F   F
  3.4149016005115698  8.1103913012149729 14.9536856434599184   F   F   F
  5.5492151008313000  6.8298032010231351 14.9536856434599184   F   F   F
  7.6835286011510293  5.5492151008312973 14.9536856434599184   F   F   F
  9.8178421014707560  4.2686270006394595 14.9536856434599184   F   F   F
 11.9521556017904889  2.9880389004476218 14.9536856434599201   F   F   F
 14.0864691021102217  1.7074508002557844 14.9536856434599201   F   F   F
  2.1343135003197315  5.9760778008952435 14.9536856434599184   F   F   F
  4.2686270006394613  4.6954897007034058 14.9536856434599184   F   F   F
  6.4029405009591915  3.4149016005115675 14.9536856434599184   F   F   F
  8.5372540012789209  2.1343135003197302 14.9536856434599184   F   F   F
 10.6715675015986520  0.8537254001278912 14.9536856434599184   F   F   F
 15.7939199023660066 23.9043112035809742 14.9536856434599201   F   F   F
  2.9880389004476227  2.5611762003836755 14.9536856434599184   F   F   F
  5.1223524007673529  1.2805881001918376 14.9536856434599184   F   F   F
  7.2566659010870840  0.0000000000000003 14.9536856434599184   F   F   F
 12.3790183018544369 23.0505858034530853 14.9536856434599201   F   F   F
  1.7074508002557842  0.4268627000639459 14.9536856434599184   F   F   F
  6.8298032010231413 23.4774485035170279 14.9536856434599201   F   F   F
  3.4149016005115715 22.6237231033891391 14.9536856434599201   F   F   F
 14.0864691021102217 23.4774485035170244  9.6736856434599190   F   F   F
 16.2207826024299528 22.1968604033251857  9.6736856434599190   F   F   F
  8.5372540012789244 23.9043112035809742  9.6736856434599190   F   F   F
 10.6715675015986555 22.6237231033891426  9.6736856434599190   F   F   F
 12.8058810019183813 21.3431350031972968  9.6736856434599190   F   F   F
 14.9401945022381177 20.0625469030054582  9.6736856434599190   F   F   F
  5.1223524007673582 23.0505858034530853  9.6736856434599190   F   F   F
  7.2566659010870858 21.7699977032612466  9.6736856434599190   F   F   F
  9.3909794014068133 20.4894096030694080  9.6736856434599190   F   F   F
 11.5252929017265462 19.2088215028775728  9.6736856434599190   F   F   F
 13.6596064020462755 17.9282334026857342  9.6736856434599190   F   F   F
 15.7939199023660031 16.6476453024938920  9.6736856434599190   F   F   F
  3.8417643005755178 20.9162723031333542  9.6736856434599190   F   F   F
  5.9760778008952471 19.6356842029415120  9.6736856434599190   F   F   F
  8.1103913012149746 18.3550961027496804  9.6736856434599190   F   F   F
 10.2447048015347075 17.0745080025578417  9.6736856434599190   F   F   F
 12.3790183018544386 15.7939199023659995  9.6736856434599190   F   F   F
 14.5133318021741697 14.5133318021741626  9.6736856434599190   F   F   F
  2.5611762003836791 18.7819588028136231  9.6736856434599190   F   F   F
  4.6954897007034102 17.5013707026217844  9.6736856434599190   F   F   F
  6.8298032010231395 16.2207826024299457  9.6736856434599190   F   F   F
  8.9641167013428671 14.9401945022381089  9.6736856434599190   F   F   F
 11.0984302016626017 13.6596064020462684  9.6736856434599190   F   F   F
 13.2327437019823257 12.3790183018544315  9.6736856434599190   F   F   F
 15.3670572023020586 11.0984302016625946  9.6736856434599190   F   F   F
  3.4149016005115702 15.3670572023020533  9.6736856434599190   F   F   F
  5.5492151008313000 14.0864691021102182  9.6736856434599190   F   F   F
  7.6835286011510320 12.8058810019183777  9.6736856434599190   F   F   F
  9.8178421014707595 11.5252929017265426  9.6736856434599190   F   F   F
 11.9521556017904906 10.2447048015347022  9.6736856434599190   F   F   F
 14.0864691021102217  8.9641167013428671  9.6736856434599190   F   F   F
  2.1343135003197320 13.2327437019823257  9.6736856434599172   F   F   F
  4.2686270006394622 11.9521556017904871  9.6736856434599190   F   F   F
  6.4029405009591907 10.6715675015986484  9.6736856434599190   F   F   F
  8.5372540012789226  9.3909794014068115  9.6736856434599190   F   F   F
 10.6715675015986537  8.1103913012149746  9.6736856434599190   F   F   F
 12.8058810019183795  6.8298032010231351  9.6736856434599190   F   F   F
 14.9401945022381089  5.5492151008312982  9.6736856434599190   F   F   F
  2.9880389004476235  9.8178421014707560  9.6736856434599172   F   F   F
  5.1223524007673538  8.5372540012789209  9.6736856434599172   F   F   F
  7.2566659010870849  7.2566659010870813  9.6736856434599172   F   F   F
  9.3909794014068151  5.9760778008952435  9.6736856434599190   F   F   F
 11.5252929017265409  4.6954897007034058  9.6736856434599190   F   F   F
 13.6596064020462755  3.4149016005115684  9.6736856434599190   F   F   F
  1.7074508002557851  7.6835286011510266  9.6736856434599172   F   F   F
  3.8417643005755160  6.4029405009591889  9.6736856434599172   F   F   F
  5.9760778008952453  5.1223524007673511  9.6736856434599172   F   F   F
  8.1103913012149746  3.8417643005755142  9.6736856434599172   F   F   F
 10.2447048015347058  2.5611762003836751  9.6736856434599172   F   F   F
 12.3790183018544351  1.2805881001918378  9.6736856434599172   F   F   F
  2.5611762003836769  4.2686270006394604  9.6736856434599172   F   F   F
  4.6954897007034075  2.9880389004476218  9.6736856434599172   F   F   F
  6.8298032010231378  1.7074508002557842  9.6736856434599172   F   F   F
  8.9641167013428689  0.4268627000639463  9.6736856434599172   F   F   F
  1.2805881001918384  2.1343135003197302  9.6736856434599172   F   F   F
  3.4149016005115689  0.8537254001278921  9.6736856434599172   F   F   F
  0.0000000000000000  0.0000000000000000  9.6736856434599172   F   F   F
 14.5133318021741680 21.7699977032612431 11.4336856434599152   F   F   F
 16.6476453024939026 20.4894096030694044 11.4336856434599152   F   F   F
  8.9641167013428671 22.1968604033251857 11.4336856434599152   F   F   F
 11.0984302016626017 20.9162723031333542 11.4336856434599152   F   F   F
 13.2327437019823293 19.6356842029415155 11.4336856434599152   F   F   F
 15.3670572023020586 18.3550961027496768 11.4336856434599152   F   F   F
  5.5492151008313026 21.3431350031973039 11.4336856434599152   F   F   F
  7.6835286011510302 20.0625469030054653 11.4336856434599152   F   F   F
  9.8178421014707631 18.7819588028136231 11.4336856434599152   F   F   F
 11.9521556017904924 17.5013707026217880 11.4336856434599152   F   F   F
 14.0864691021102200 16.2207826024299493 11.4336856434599152   F   F   F
 16.2207826024299493 14.9401945022381089 11.4336856434599152   F   F   F
  4.2686270006394631 19.2088215028775728 11.4336856434599152   F   F   F
  6.4029405009591915 17.9282334026857342 11.4336856434599152   F   F   F
  8.5372540012789209 16.6476453024938955 11.4336856434599152   F   F   F
 10.6715675015986537 15.3670572023020533 11.4336856434599152   F   F   F
 12.8058810019183866 14.0864691021102182 11.4336856434599152   F   F   F
 14.9401945022381124 12.8058810019183777 11.4336856434599152   F   F   F
  2.9880389004476253 17.0745080025578417 11.4336856434599152   F   F   F
  5.1223524007673555 15.7939199023659995 11.4336856434599152   F   F   F
  7.2566659010870840 14.5133318021741644 11.4336856434599152   F   F   F
  9.3909794014068133 13.2327437019823222 11.4336856434599152   F   F   F
 11.5252929017265480 11.9521556017904871 11.4336856434599152   F   F   F
 13.6596064020462720 10.6715675015986466 11.4336856434599152   F   F   F
  1.2805881001918400  9.3909794014068098 11.4336856434599135   F   F   F
  3.8417643005755169 13.6596064020462702 11.4336856434599152   F   F   F
  5.9760778008952462 12.3790183018544333 11.4336856434599152   F   F   F
  8.1103913012149764 11.0984302016625946 11.4336856434599152   F   F   F
 10.2447048015347040  9.8178421014707560 11.4336856434599152   F   F   F
 12.3790183018544369  8.5372540012789209 11.4336856434599152   F   F   F
 14.5133318021741662  7.2566659010870822 11.4336856434599152   F   F   F
  2.5611762003836782 11.5252929017265426 11.4336856434599135   F   F   F
  4.6954897007034067 10.2447048015347022 11.4336856434599135   F   F   F
  6.8298032010231378  8.9641167013428671 11.4336856434599152   F   F   F
  8.9641167013428689  7.6835286011510266 11.4336856434599152   F   F   F
 11.0984302016625964  6.4029405009591907 11.4336856434599152   F   F   F
 13.2327437019823275  5.1223524007673520 11.4336856434599152   F   F   F
  0.8537254001278940  3.8417643005755133 11.4336856434599135   F   F   F
  3.4149016005115698  8.1103913012149729 11.4336856434599135   F   F   F
  5.5492151008313000  6.8298032010231351 11.4336856434599135   F   F   F
  7.6835286011510293  5.5492151008312973 11.4336856434599135   F   F   F
  9.8178421014707560  4.2686270006394595 11.4336856434599135   F   F   F
 11.9521556017904889  2.9880389004476218 11.4336856434599152   F   F   F
 14.0864691021102217  1.7074508002557844 11.4336856434599152   F   F   F
  2.1343135003197315  5.9760778008952435 11.4336856434599135   F   F   F
  4.2686270006394613  4.6954897007034058 11.4336856434599135   F   F   F
  6.4029405009591915  3.4149016005115675 11.4336856434599135   F   F   F
  8.5372540012789209  2.1343135003197302 11.4336856434599135   F   F   F
 10.6715675015986520  0.8537254001278912 11.4336856434599135   F   F   F
 15.7939199023660066 23.9043112035809742 11.4336856434599152   F   F   F
  2.9880389004476227  2.5611762003836755 11.4336856434599135   F   F   F
  5.1223524007673529  1.2805881001918376 11.4336856434599135   F   F   F
  7.2566659010870840  0.0000000000000003 11.4336856434599135   F   F   F
 12.3790183018544369 23.0505858034530853 11.4336856434599152   F   F   F
  1.7074508002557842  0.4268627000639459 11.4336856434599135   F   F   F
  6.8298032010231413 23.4774485035170279 11.4336856434599152   F   F   F
  3.4149016005115715 22.6237231033891391 11.4336856434599152   F   F   F
  5.7643816651248443 21.9574008400527205 47.1976306434599309   T   T   T
  4.8377772674250563  0.0000000001780318 47.1976306434599309   T   T   T
  4.7544869844857525 16.6164114465696890 47.1976306434599309   T   T   T
  6.8159214872335880 18.9901845103399225 47.1976306434599309   T   T   T
  8.8773559899814281 21.3639575741101631 47.1976306434599309   T   T   T
 10.9387904927292663 23.7377306378804001 47.1976306434599309   T   T   T
  3.7445923038466580 11.2754220530866576 47.1976306434599309   T   T   T
  5.8060268065944962 13.6491951168568910 47.1976306434599309   T   T   T
  7.8674613093423327 16.0229681806271280 47.1976306434599309   T   T   T
  9.9288958120901736 18.3967412443973686 47.1976306434599309   T   T   T
 11.9903303148380136 20.7705143081676020 47.1976306434599309   T   T   T
 14.0517648175858465 23.1442873719378390 47.1976306434599309   T   T   T
  2.7346976232075648  5.9344326596036217 47.1976306434599309   T   T   T
  4.7961321259554053  8.3082057233738613 47.1976306434599309   T   T   T
  6.8575666287032391 10.6819787871440965 47.1976306434599309   T   T   T
  8.9190011314510773 13.0557518509143318 47.1976306434599309   T   T   T
 10.9804356341989191 15.4295249146845723 47.1976306434599309   T   T   T
 13.0418701369467538 17.8032979784548040 47.1976306434599309   T   T   T
 15.1033046396945903 20.1770710422250410 47.1976306434599309   T   T   T
 17.1647391424424320 22.5508441059952780 47.1976306434599309   T   T   T
  1.7248029425684717  0.5934432661205915 47.1976306434599309   T   T   T
  3.7862374453163099  2.9672163298908281 47.1976306434599309   T   T   T
  5.8476719480641473  5.3409893936610642 47.1976306434599309   T   T   T
  7.9091064508119828  7.7147624574313012 47.1976306434599309   T   T   T
  9.9705409535598228 10.0885355212015373 47.1976306434599309   T   T   T
 12.0319754563076646 12.4623085849717743 47.1976306434599309   T   T   T
 14.0934099590555029 14.8360816487420095 47.1976306434599309   T   T   T
 16.1548444618033393 17.2098547125122501 47.1976306434599309   T   T   T
  3.7029471623770105 19.5836277762824835 47.1976306434599309   T   T   T
  6.8992117701728919  2.3737730639482697 47.1976306434599309   T   T   T
  8.9606462729207284  4.7475461277185058 47.1976306434599309   T   T   T
 11.0220807756685684  7.1213191914887437 47.1976306434599309   T   T   T
 13.0835152784164084  9.4950922552589798 47.1976306434599309   T   T   T
 15.1449497811642448 11.8688653190292186 47.1976306434599309   T   T   T
  2.6930524817379173 14.2426383827994538 47.1976306434599309   T   T   T
 10.0121860950294721  1.7803297980057118 47.1976306434599309   T   T   T
 12.0736205977773086  4.1541028617759475 47.1976306434599309   T   T   T
 14.1350551005251504  6.5278759255461845 47.1976306434599309   T   T   T
  1.6831578010988246  8.9016489893164223 47.1976306434599309   T   T   T
 13.1251604198860541  1.1868865320631536 47.1976306434599309   T   T   T
  0.6732631204597311  3.5606595958333900 47.1976306434599309   T   T   T
  5.4277501048444874 20.1770710418689774 41.0501306434599229   T   T   T
  7.4891846075923247 22.5508441056392108 41.0501306434599229   T   T   T
  4.4178554242053929 14.8360816483859441 41.0501306434599229   T   T   T
  6.4792899269532338 17.2098547121561793 41.0501306434599229   T   T   T
  8.5407244297010703 19.5836277759264128 41.0501306434599229   T   T   T
 10.6021589324489103 21.9574008396966533 41.0501306434599229   T   T   T
  3.4079607435663015  9.4950922549029109 41.0501306434599229   T   T   T
  5.4693952463141375 11.8688653186731479 41.0501306434599229   T   T   T
  7.5308297490619793 14.2426383824433831 41.0501306434599229   T   T   T
  9.5922642518098140 16.6164114462136219 41.0501306434599229   T   T   T
 11.6536987545576487 18.9901845099838589 41.0501306434599229   T   T   T
 13.7151332573054887 21.3639575737540923 41.0501306434599229   T   T   T
  2.3980660629272093  4.1541028614198785 41.0501306434599229   T   T   T
  4.4595005656750466  6.5278759251901164 41.0501306434599229   T   T   T
  6.5209350684228822  8.9016489889603534 41.0501306434599229   T   T   T
  8.5823695711707195 11.2754220527305886 41.0501306434599229   T   T   T
 10.6438040739185578 13.6491951165008274 41.0501306434599229   T   T   T
 12.7052385766663960 16.0229681802710608 41.0501306434599229   T   T   T
 14.7666730794142325 18.3967412440413014 41.0501306434599229   T   T   T
 16.8281075821620725 20.7705143078115348 41.0501306434599229   T   T   T
  4.3762102827357445 23.1442873715817683 41.0501306434599229   T   T   T
  3.4496058850359530  1.1868865317070842 41.0501306434599229   T   T   T
  5.5110403877837912  3.5606595954773210 41.0501306434599229   T   T   T
  7.5724748905316277  5.9344326592475580 41.0501306434599229   T   T   T
  9.6339093932794686  8.3082057230177941 41.0501306434599229   T   T   T
 11.6953438960273051 10.6819787867880311 41.0501306434599229   T   T   T
 13.7567783987751433 13.0557518505582681 41.0501306434599229   T   T   T
 15.8182129015229780 15.4295249143285051 41.0501306434599229   T   T   T
  3.3663156020966514 17.8032979780987404 41.0501306434599229   T   T   T
  6.5625802098925350  0.5934432657645269 41.0501306434599229   T   T   T
  8.6240147126403706  2.9672163295347627 41.0501306434599229   T   T   T
 10.6854492153882106  5.3409893933049997 41.0501306434599229   T   T   T
 12.7468837181360470  7.7147624570752367 41.0501306434599229   T   T   T
 14.8083182208838871 10.0885355208454754 41.0501306434599229   T   T   T
  2.3564209214575587 12.4623085846157124 41.0501306434599229   T   T   T
 12.6635934351967450 24.3311739034668868 41.0501306434599229   T   T   T
 11.7369890374969543  2.3737730635922047 41.0501306434599229   T   T   T
 13.7984235402447890  4.7475461273624413 41.0501306434599229   T   T   T
  1.3465262408184651  7.1213191911326783 41.0501306434599229   T   T   T
 15.7765677600533252 23.7377306375243329 41.0501306434599229   T   T   T
  0.3366315601793720  1.7803297976496473 41.0501306434599229   T   T   T
  5.7643816651248461 21.9574008400527205 34.9026306434599149   T   T   T
  4.8377772674250581  0.0000000001780315 34.9026306434599149   T   T   T
  4.7544869844857534 16.6164114465696890 34.9026306434599149   T   T   T
  6.8159214872335898 18.9901845103399225 34.9026306434599149   T   T   T
  8.8773559899814298 21.3639575741101631 34.9026306434599149   T   T   T
 10.9387904927292663 23.7377306378804001 34.9026306434599149   T   T   T
  3.7445923038466598 11.2754220530866558 34.9026306434599149   T   T   T
  5.8060268065944980 13.6491951168568910 34.9026306434599149   T   T   T
  7.8674613093423345 16.0229681806271280 34.9026306434599149   T   T   T
  9.9288958120901736 18.3967412443973686 34.9026306434599149   T   T   T
 11.9903303148380136 20.7705143081676020 34.9026306434599149   T   T   T
 14.0517648175858465 23.1442873719378390 34.9026306434599149   T   T   T
  2.7346976232075666  5.9344326596036217 34.9026306434599149   T   T   T
  4.7961321259554071  8.3082057233738595 34.9026306434599149   T   T   T
  6.8575666287032409 10.6819787871440965 34.9026306434599149   T   T   T
  8.9190011314510773 13.0557518509143318 34.9026306434599149   T   T   T
 10.9804356341989191 15.4295249146845723 34.9026306434599149   T   T   T
 13.0418701369467538 17.8032979784548040 34.9026306434599149   T   T   T
 15.1033046396945903 20.1770710422250410 34.9026306434599149   T   T   T
 17.1647391424424320 22.5508441059952780 34.9026306434599149   T   T   T
  1.7248029425684732  0.5934432661205912 34.9026306434599149   T   T   T
  3.7862374453163117  2.9672163298908281 34.9026306434599149   T   T   T
  5.8476719480641490  5.3409893936610642 34.9026306434599149   T   T   T
  7.9091064508119846  7.7147624574312994 34.9026306434599149   T   T   T
  9.9705409535598228 10.0885355212015373 34.9026306434599149   T   T   T
 12.0319754563076646 12.4623085849717743 34.9026306434599149   T   T   T
 14.0934099590555029 14.8360816487420095 34.9026306434599149   T   T   T
 16.1548444618033393 17.2098547125122501 34.9026306434599149   T   T   T
  3.7029471623770123 19.5836277762824835 34.9026306434599149   T   T   T
  6.8992117701728937  2.3737730639482693 34.9026306434599149   T   T   T
  8.9606462729207284  4.7475461277185058 34.9026306434599149   T   T   T
 11.0220807756685666  7.1213191914887428 34.9026306434599149   T   T   T
 13.0835152784164066  9.4950922552589780 34.9026306434599149   T   T   T
 15.1449497811642448 11.8688653190292168 34.9026306434599149   T   T   T
  2.6930524817379191 14.2426383827994538 34.9026306434599149   T   T   T
 10.0121860950294721  1.7803297980057113 34.9026306434599149   T   T   T
 12.0736205977773086  4.1541028617759475 34.9026306434599149   T   T   T
 14.1350551005251504  6.5278759255461836 34.9026306434599149   T   T   T
  1.6831578010988260  8.9016489893164206 34.9026306434599149   T   T   T
 13.1251604198860541  1.1868865320631536 34.9026306434599149   T   T   T
  0.6732631204597327  3.5606595958333900 34.9026306434599149   T   T   T
  5.4277501048444892 20.1770710418689774 28.7551306434599319   T   T   T
  7.4891846075923265 22.5508441056392108 28.7551306434599319   T   T   T
  4.4178554242053947 14.8360816483859441 28.7551306434599319   T   T   T
  6.4792899269532356 17.2098547121561793 28.7551306434599319   T   T   T
  8.5407244297010720 19.5836277759264128 28.7551306434599319   T   T   T
 10.6021589324489121 21.9574008396966533 28.7551306434599354   T   T   T
  3.4079607435663029  9.4950922549029091 28.7551306434599319   T   T   T
  5.4693952463141393 11.8688653186731461 28.7551306434599319   T   T   T
  7.5308297490619811 14.2426383824433831 28.7551306434599319   T   T   T
  9.5922642518098158 16.6164114462136219 28.7551306434599319   T   T   T
 11.6536987545576523 18.9901845099838589 28.7551306434599319   T   T   T
 13.7151332573054887 21.3639575737540923 28.7551306434599354   T   T   T
  2.3980660629272110  4.1541028614198785 28.7551306434599319   T   T   T
  4.4595005656750484  6.5278759251901146 28.7551306434599319   T   T   T
  6.5209350684228831  8.9016489889603516 28.7551306434599319   T   T   T
  8.5823695711707213 11.2754220527305868 28.7551306434599319   T   T   T
 10.6438040739185595 13.6491951165008274 28.7551306434599319   T   T   T
 12.7052385766663960 16.0229681802710608 28.7551306434599319   T   T   T
 14.7666730794142325 18.3967412440413014 28.7551306434599354   T   T   T
 16.8281075821620760 20.7705143078115348 28.7551306434599354   T   T   T
  4.3762102827357463 23.1442873715817683 28.7551306434599319   T   T   T
  3.4496058850359548  1.1868865317070842 28.7551306434599319   T   T   T
  5.5110403877837930  3.5606595954773210 28.7551306434599319   T   T   T
  7.5724748905316295  5.9344326592475580 28.7551306434599319   T   T   T
  9.6339093932794704  8.3082057230177941 28.7551306434599319   T   T   T
 11.6953438960273051 10.6819787867880311 28.7551306434599319   T   T   T
 13.7567783987751451 13.0557518505582681 28.7551306434599319   T   T   T
 15.8182129015229798 15.4295249143285051 28.7551306434599354   T   T   T
  3.3663156020966527 17.8032979780987404 28.7551306434599319   T   T   T
  6.5625802098925368  0.5934432657645266 28.7551306434599319   T   T   T
  8.6240147126403706  2.9672163295347622 28.7551306434599319   T   T   T
 10.6854492153882124  5.3409893933049997 28.7551306434599319   T   T   T
 12.7468837181360470  7.7147624570752358 28.7551306434599319   T   T   T
 14.8083182208838888 10.0885355208454737 28.7551306434599319   T   T   T
  2.3564209214575600 12.4623085846157124 28.7551306434599319   T   T   T
 12.6635934351967467 24.3311739034668868 28.7551306434599354   T   T   T
 11.7369890374969561  2.3737730635922043 28.7551306434599319   T   T   T
 13.7984235402447908  4.7475461273624413 28.7551306434599319   T   T   T
  1.3465262408184664  7.1213191911326774 28.7551306434599319   T   T   T
 15.7765677600533269 23.7377306375243329 28.7551306434599354   T   T   T
  0.3366315601793735  1.7803297976496471 28.7551306434599319   T   T   T
  5.7643816651248461 21.9574008400527205 39.4640756434599211   T   T   T
  4.8377772674250572  0.0000000001780316 39.4640756434599211   T   T   T
  4.7544869844857534 16.6164114465696890 39.4640756434599211   T   T   T
  6.8159214872335898 18.9901845103399225 39.4640756434599211   T   T   T
  8.8773559899814281 21.3639575741101631 39.4640756434599211   T   T   T
 10.9387904927292663 23.7377306378804001 39.4640756434599211   T   T   T
  3.7445923038466589 11.2754220530866576 39.4640756434599211   T   T   T
  5.8060268065944971 13.6491951168568910 39.4640756434599211   T   T   T
  7.8674613093423336 16.0229681806271280 39.4640756434599211   T   T   T
  9.9288958120901736 18.3967412443973686 39.4640756434599211   T   T   T
 11.9903303148380136 20.7705143081676020 39.4640756434599211   T   T   T
 14.0517648175858465 23.1442873719378390 39.4640756434599211   T   T   T
  2.7346976232075662  5.9344326596036217 39.4640756434599211   T   T   T
  4.7961321259554062  8.3082057233738613 39.4640756434599211   T   T   T
  6.8575666287032400 10.6819787871440965 39.4640756434599211   T   T   T
  8.9190011314510773 13.0557518509143318 39.4640756434599211   T   T   T
 10.9804356341989191 15.4295249146845723 39.4640756434599211   T   T   T
 13.0418701369467538 17.8032979784548040 39.4640756434599211   T   T   T
 15.1033046396945903 20.1770710422250410 39.4640756434599211   T   T   T
 17.1647391424424320 22.5508441059952780 39.4640756434599211   T   T   T
  1.7248029425684728  0.5934432661205913 39.4640756434599211   T   T   T
  3.7862374453163112  2.9672163298908281 39.4640756434599211   T   T   T
  5.8476719480641481  5.3409893936610642 39.4640756434599211   T   T   T
  7.9091064508119837  7.7147624574313012 39.4640756434599211   T   T   T
  9.9705409535598228 10.0885355212015373 39.4640756434599211   T   T   T
 12.0319754563076646 12.4623085849717743 39.4640756434599211   T   T   T
 14.0934099590555029 14.8360816487420095 39.4640756434599211   T   T   T
 16.1548444618033393 17.2098547125122501 39.4640756434599211   T   T   T
  3.7029471623770114 19.5836277762824835 39.4640756434599353   T   T   T
  6.8992117701728919  2.3737730639482693 39.4640756434599211   T   T   T
  8.9606462729207284  4.7475461277185058 39.4640756434599211   T   T   T
 11.0220807756685684  7.1213191914887437 39.4640756434599211   T   T   T
 13.0835152784164084  9.4950922552589798 39.4640756434599211   T   T   T
 15.1449497811642448 11.8688653190292186 39.4640756434599211   T   T   T
  2.6930524817379187 14.2426383827994538 39.4640756434599353   T   T   T
 10.0121860950294721  1.7803297980057113 39.4640756434599211   T   T   T
 12.0736205977773086  4.1541028617759475 39.4640756434599211   T   T   T
 14.1350551005251504  6.5278759255461845 39.4640756434599211   T   T   T
  1.6831578010988255  8.9016489893164223 39.4640756434599353   T   T   T
 13.1251604198860541  1.1868865320631536 39.4640756434599211   T   T   T
  0.6732631204597321  3.5606595958333900 39.4640756434599353   T   T   T
  5.4277501048444865 20.1770710418689774 45.6115756434599149   T   T   T
  7.4891846075923230 22.5508441056392108 45.6115756434599149   T   T   T
  4.4178554242053929 14.8360816483859441 45.6115756434599149   T   T   T
  6.4792899269532329 17.2098547121561793 45.6115756434599149   T   T   T
  8.5407244297010685 19.5836277759264128 45.6115756434599149   T   T   T
 10.6021589324489103 21.9574008396966533 45.6115756434599149   T   T   T
  3.4079607435663011  9.4950922549029109 45.6115756434599149   T   T   T
  5.4693952463141366 11.8688653186731479 45.6115756434599149   T   T   T
  7.5308297490619793 14.2426383824433831 45.6115756434599149   T   T   T
  9.5922642518098140 16.6164114462136219 45.6115756434599149   T   T   T
 11.6536987545576487 18.9901845099838589 45.6115756434599149   T   T   T
 13.7151332573054887 21.3639575737540923 45.6115756434599149   T   T   T
  2.3980660629272084  4.1541028614198785 45.6115756434599149   T   T   T
  4.4595005656750466  6.5278759251901164 45.6115756434599149   T   T   T
  6.5209350684228813  8.9016489889603534 45.6115756434599149   T   T   T
  8.5823695711707195 11.2754220527305886 45.6115756434599149   T   T   T
 10.6438040739185578 13.6491951165008274 45.6115756434599149   T   T   T
 12.7052385766663960 16.0229681802710608 45.6115756434599149   T   T   T
 14.7666730794142325 18.3967412440413014 45.6115756434599149   T   T   T
 16.8281075821620725 20.7705143078115348 45.6115756434599149   T   T   T
  4.3762102827357436 23.1442873715817683 45.6115756434599149   T   T   T
  3.4496058850359526  1.1868865317070845 45.6115756434599149   T   T   T
  5.5110403877837904  3.5606595954773210 45.6115756434599149   T   T   T
  7.5724748905316268  5.9344326592475580 45.6115756434599149   T   T   T
  9.6339093932794686  8.3082057230177941 45.6115756434599149   T   T   T
 11.6953438960273051 10.6819787867880311 45.6115756434599149   T   T   T
 13.7567783987751433 13.0557518505582681 45.6115756434599149   T   T   T
 15.8182129015229780 15.4295249143285051 45.6115756434599149   T   T   T
  3.3663156020966509 17.8032979780987404 45.6115756434599220   T   T   T
  6.5625802098925341  0.5934432657645270 45.6115756434599149   T   T   T
  8.6240147126403706  2.9672163295347631 45.6115756434599149   T   T   T
 10.6854492153882106  5.3409893933049997 45.6115756434599149   T   T   T
 12.7468837181360470  7.7147624570752367 45.6115756434599149   T   T   T
 14.8083182208838871 10.0885355208454754 45.6115756434599149   T   T   T
  2.3564209214575582 12.4623085846157124 45.6115756434599220   T   T   T
 12.6635934351967450 24.3311739034668868 45.6115756434599149   T   T   T
 11.7369890374969543  2.3737730635922052 45.6115756434599149   T   T   T
 13.7984235402447890  4.7475461273624413 45.6115756434599149   T   T   T
  1.3465262408184646  7.1213191911326783 45.6115756434599220   T   T   T
 15.7765677600533252 23.7377306375243329 45.6115756434599149   T   T   T
  0.3366315601793715  1.7803297976496477 45.6115756434599220   T   T   T
  5.4277501048444883 20.1770710418689774 36.4886856434599309   T   T   T
  7.4891846075923247 22.5508441056392108 36.4886856434599309   T   T   T
  4.4178554242053938 14.8360816483859441 36.4886856434599309   T   T   T
  6.4792899269532347 17.2098547121561793 36.4886856434599309   T   T   T
  8.5407244297010703 19.5836277759264128 36.4886856434599309   T   T   T
 10.6021589324489103 21.9574008396966533 36.4886856434599309   T   T   T
  3.4079607435663020  9.4950922549029091 36.4886856434599309   T   T   T
  5.4693952463141384 11.8688653186731461 36.4886856434599309   T   T   T
  7.5308297490619811 14.2426383824433831 36.4886856434599309   T   T   T
  9.5922642518098140 16.6164114462136219 36.4886856434599309   T   T   T
 11.6536987545576487 18.9901845099838589 36.4886856434599309   T   T   T
 13.7151332573054887 21.3639575737540923 36.4886856434599309   T   T   T
  2.3980660629272093  4.1541028614198785 36.4886856434599309   T   T   T
  4.4595005656750475  6.5278759251901146 36.4886856434599309   T   T   T
  6.5209350684228831  8.9016489889603516 36.4886856434599309   T   T   T
  8.5823695711707213 11.2754220527305868 36.4886856434599309   T   T   T
 10.6438040739185578 13.6491951165008274 36.4886856434599309   T   T   T
 12.7052385766663960 16.0229681802710608 36.4886856434599309   T   T   T
 14.7666730794142325 18.3967412440413014 36.4886856434599309   T   T   T
 16.8281075821620725 20.7705143078115348 36.4886856434599309   T   T   T
  4.3762102827357445 23.1442873715817683 36.4886856434599309   T   T   T
  3.4496058850359534  1.1868865317070842 36.4886856434599309   T   T   T
  5.5110403877837921  3.5606595954773210 36.4886856434599309   T   T   T
  7.5724748905316286  5.9344326592475580 36.4886856434599309   T   T   T
  9.6339093932794686  8.3082057230177941 36.4886856434599309   T   T   T
 11.6953438960273051 10.6819787867880311 36.4886856434599309   T   T   T
 13.7567783987751433 13.0557518505582681 36.4886856434599309   T   T   T
 15.8182129015229780 15.4295249143285051 36.4886856434599309   T   T   T
  3.3663156020966518 17.8032979780987404 36.4886856434599309   T   T   T
  6.5625802098925359  0.5934432657645268 36.4886856434599309   T   T   T
  8.6240147126403706  2.9672163295347627 36.4886856434599309   T   T   T
 10.6854492153882106  5.3409893933049997 36.4886856434599309   T   T   T
 12.7468837181360453  7.7147624570752358 36.4886856434599309   T   T   T
 14.8083182208838871 10.0885355208454737 36.4886856434599309   T   T   T
  2.3564209214575591 12.4623085846157124 36.4886856434599309   T   T   T
 12.6635934351967450 24.3311739034668868 36.4886856434599309   T   T   T
 11.7369890374969543  2.3737730635922047 36.4886856434599309   T   T   T
 13.7984235402447890  4.7475461273624413 36.4886856434599309   T   T   T
  1.3465262408184655  7.1213191911326774 36.4886856434599309   T   T   T
 15.7765677600533252 23.7377306375243329 36.4886856434599309   T   T   T
  0.3366315601793726  1.7803297976496473 36.4886856434599309   T   T   T
  5.7643816651248452 21.9574008400527205 42.6361856434599318   T   T   T
  4.8377772674250572  0.0000000001780317 42.6361856434599318   T   T   T
  4.7544869844857534 16.6164114465696890 42.6361856434599318   T   T   T
  6.8159214872335898 18.9901845103399225 42.6361856434599318   T   T   T
  8.8773559899814281 21.3639575741101631 42.6361856434599318   T   T   T
 10.9387904927292663 23.7377306378804001 42.6361856434599318   T   T   T
  3.7445923038466598 11.2754220530866558 42.6361856434599318   T   T   T
  5.8060268065944971 13.6491951168568910 42.6361856434599318   T   T   T
  7.8674613093423336 16.0229681806271280 42.6361856434599318   T   T   T
  9.9288958120901736 18.3967412443973686 42.6361856434599318   T   T   T
 11.9903303148380136 20.7705143081676020 42.6361856434599318   T   T   T
 14.0517648175858465 23.1442873719378390 42.6361856434599318   T   T   T
  2.7346976232075666  5.9344326596036225 42.6361856434599318   T   T   T
  4.7961321259554062  8.3082057233738613 42.6361856434599318   T   T   T
  6.8575666287032400 10.6819787871440965 42.6361856434599318   T   T   T
  8.9190011314510773 13.0557518509143318 42.6361856434599318   T   T   T
 10.9804356341989191 15.4295249146845723 42.6361856434599318   T   T   T
 13.0418701369467538 17.8032979784548040 42.6361856434599318   T   T   T
 15.1033046396945903 20.1770710422250410 42.6361856434599318   T   T   T
 17.1647391424424320 22.5508441059952780 42.6361856434599318   T   T   T
  1.7248029425684726  0.5934432661205918 42.6361856434599318   T   T   T
  3.7862374453163103  2.9672163298908285 42.6361856434599318   T   T   T
  5.8476719480641473  5.3409893936610651 42.6361856434599318   T   T   T
  7.9091064508119837  7.7147624574313012 42.6361856434599318   T   T   T
  9.9705409535598228 10.0885355212015391 42.6361856434599318   T   T   T
 12.0319754563076629 12.4623085849717778 42.6361856434599318   T   T   T
 14.0934099590555029 14.8360816487420095 42.6361856434599318   T   T   T
 16.1548444618033393 17.2098547125122501 42.6361856434599318   T   T   T
  3.7029471623770114 19.5836277762824835 42.6361856434599318   T   T   T
  6.8992117701728928  2.3737730639482701 42.6361856434599318   T   T   T
  8.9606462729207284  4.7475461277185076 42.6361856434599318   T   T   T
 11.0220807756685684  7.1213191914887437 42.6361856434599318   T   T   T
 13.0835152784164084  9.4950922552589798 42.6361856434599318   T   T   T
 15.1449497811642448 11.8688653190292186 42.6361856434599318   T   T   T
  2.6930524817379182 14.2426383827994556 42.6361856434599318   T   T   T
 10.0121860950294721  1.7803297980057113 42.6361856434599318   T   T   T
 12.0736205977773086  4.1541028617759483 42.6361856434599318   T   T   T
 14.1350551005251504  6.5278759255461871 42.6361856434599318   T   T   T
  1.6831578010988253  8.9016489893164223 42.6361856434599318   T   T   T
 13.1251604198860541  1.1868865320631543 42.6361856434599318   T   T   T
  0.6732631204597319  3.5606595958333900 42.6361856434599318   T   T   T
  5.7643816651248470 21.9574008400527205 27.1690756434599301   T   T   T
  4.8377772674250590  0.0000000001780313 27.1690756434599301   T   T   T
  4.7544869844857551 16.6164114465696890 27.1690756434599301   T   T   T
  6.8159214872335898 18.9901845103399225 27.1690756434599301   T   T   T
  8.8773559899814298 21.3639575741101631 27.1690756434599301   T   T   T
 10.9387904927292663 23.7377306378804001 27.1690756434599336   T   T   T
  3.7445923038466606 11.2754220530866558 27.1690756434599301   T   T   T
  5.8060268065944989 13.6491951168568910 27.1690756434599301   T   T   T
  7.8674613093423353 16.0229681806271280 27.1690756434599301   T   T   T
  9.9288958120901754 18.3967412443973686 27.1690756434599301   T   T   T
 11.9903303148380154 20.7705143081676020 27.1690756434599336   T   T   T
 14.0517648175858483 23.1442873719378390 27.1690756434599336   T   T   T
  2.7346976232075670  5.9344326596036217 27.1690756434599301   T   T   T
  4.7961321259554071  8.3082057233738595 27.1690756434599301   T   T   T
  6.8575666287032417 10.6819787871440965 27.1690756434599301   T   T   T
  8.9190011314510791 13.0557518509143318 27.1690756434599301   T   T   T
 10.9804356341989191 15.4295249146845723 27.1690756434599301   T   T   T
 13.0418701369467556 17.8032979784548040 27.1690756434599301   T   T   T
 15.1033046396945920 20.1770710422250410 27.1690756434599336   T   T   T
 17.1647391424424320 22.5508441059952780 27.1690756434599336   T   T   T
  1.7248029425684743  0.5934432661205911 27.1690756434599301   T   T   T
  3.7862374453163121  2.9672163298908276 27.1690756434599301   T   T   T
  5.8476719480641499  5.3409893936610642 27.1690756434599301   T   T   T
  7.9091064508119855  7.7147624574312994 27.1690756434599301   T   T   T
  9.9705409535598246 10.0885355212015373 27.1690756434599301   T   T   T
 12.0319754563076646 12.4623085849717743 27.1690756434599301   T   T   T
 14.0934099590555046 14.8360816487420095 27.1690756434599301   T   T   T
 16.1548444618033393 17.2098547125122501 27.1690756434599336   T   T   T
  3.7029471623770132 19.5836277762824835 27.1690756434599301   T   T   T
  6.8992117701728937  2.3737730639482688 27.1690756434599301   T   T   T
  8.9606462729207284  4.7475461277185058 27.1690756434599301   T   T   T
 11.0220807756685701  7.1213191914887428 27.1690756434599301   T   T   T
 13.0835152784164102  9.4950922552589780 27.1690756434599301   T   T   T
 15.1449497811642466 11.8688653190292168 27.1690756434599301   T   T   T
  2.6930524817379200 14.2426383827994538 27.1690756434599301   T   T   T
 10.0121860950294739  1.7803297980057111 27.1690756434599301   T   T   T
 12.0736205977773103  4.1541028617759475 27.1690756434599301   T   T   T
 14.1350551005251521  6.5278759255461836 27.1690756434599301   T   T   T
  1.6831578010988268  8.9016489893164206 27.1690756434599301   T   T   T
 13.1251604198860559  1.1868865320631534 27.1690756434599301   T   T   T
  0.6732631204597336  3.5606595958333900 27.1690756434599301   T   T   T
  5.4277501048444883 20.1770710418689774 33.3165756434599132   T   T   T
  7.4891846075923247 22.5508441056392108 33.3165756434599132   T   T   T
  4.4178554242053938 14.8360816483859441 33.3165756434599132   T   T   T
  6.4792899269532347 17.2098547121561793 33.3165756434599132   T   T   T
  8.5407244297010703 19.5836277759264128 33.3165756434599132   T   T   T
 10.6021589324489121 21.9574008396966533 33.3165756434599132   T   T   T
  3.4079607435663020  9.4950922549029091 33.3165756434599132   T   T   T
  5.4693952463141384 11.8688653186731461 33.3165756434599132   T   T   T
  7.5308297490619811 14.2426383824433831 33.3165756434599132   T   T   T
  9.5922642518098158 16.6164114462136219 33.3165756434599132   T   T   T
 11.6536987545576523 18.9901845099838589 33.3165756434599132   T   T   T
 13.7151332573054887 21.3639575737540923 33.3165756434599132   T   T   T
  2.3980660629272101  4.1541028614198785 33.3165756434599132   T   T   T
  4.4595005656750475  6.5278759251901146 33.3165756434599132   T   T   T
  6.5209350684228831  8.9016489889603516 33.3165756434599132   T   T   T
  8.5823695711707213 11.2754220527305868 33.3165756434599132   T   T   T
 10.6438040739185595 13.6491951165008274 33.3165756434599132   T   T   T
 12.7052385766663960 16.0229681802710608 33.3165756434599132   T   T   T
 14.7666730794142325 18.3967412440413014 33.3165756434599132   T   T   T
 16.8281075821620760 20.7705143078115348 33.3165756434599132   T   T   T
  4.3762102827357454 23.1442873715817683 33.3165756434599132   T   T   T
  3.4496058850359539  1.1868865317070842 33.3165756434599132   T   T   T
  5.5110403877837921  3.5606595954773210 33.3165756434599132   T   T   T
  7.5724748905316286  5.9344326592475580 33.3165756434599132   T   T   T
  9.6339093932794704  8.3082057230177941 33.3165756434599132   T   T   T
 11.6953438960273051 10.6819787867880311 33.3165756434599132   T   T   T
 13.7567783987751451 13.0557518505582681 33.3165756434599132   T   T   T
 15.8182129015229798 15.4295249143285051 33.3165756434599132   T   T   T
  3.3663156020966527 17.8032979780987404 33.3165756434599132   T   T   T
  6.5625802098925359  0.5934432657645268 33.3165756434599132   T   T   T
  8.6240147126403706  2.9672163295347627 33.3165756434599132   T   T   T
 10.6854492153882124  5.3409893933049997 33.3165756434599132   T   T   T
 12.7468837181360470  7.7147624570752358 33.3165756434599132   T   T   T
 14.8083182208838888 10.0885355208454737 33.3165756434599132   T   T   T
  2.3564209214575595 12.4623085846157124 33.3165756434599132   T   T   T
 12.6635934351967467 24.3311739034668868 33.3165756434599132   T   T   T
 11.7369890374969561  2.3737730635922047 33.3165756434599132   T   T   T
 13.7984235402447908  4.7475461273624413 33.3165756434599132   T   T   T
  1.3465262408184659  7.1213191911326774 33.3165756434599132   T   T   T
 15.7765677600533269 23.7377306375243329 33.3165756434599132   T   T   T
  0.3366315601793730  1.7803297976496473 33.3165756434599132   T   T   T
  5.4277501048444892 20.1770710418689774 24.1936856434599186   T   T   T
  7.4891846075923265 22.5508441056392108 24.1936856434599186   T   T   T
  4.4178554242053947 14.8360816483859441 24.1936856434599186   T   T   T
  6.4792899269532365 17.2098547121561793 24.1936856434599186   T   T   T
  8.5407244297010720 19.5836277759264128 24.1936856434599186   T   T   T
 10.6021589324489121 21.9574008396966533 24.1936856434599221   T   T   T
  3.4079607435663029  9.4950922549029091 24.1936856434599186   T   T   T
  5.4693952463141402 11.8688653186731461 24.1936856434599186   T   T   T
  7.5308297490619829 14.2426383824433831 24.1936856434599186   T   T   T
  9.5922642518098158 16.6164114462136219 24.1936856434599186   T   T   T
 11.6536987545576523 18.9901845099838589 24.1936856434599186   T   T   T
 13.7151332573054887 21.3639575737540923 24.1936856434599221   T   T   T
  2.3980660629272110  4.1541028614198785 24.1936856434599186   T   T   T
  4.4595005656750493  6.5278759251901146 24.1936856434599186   T   T   T
  6.5209350684228848  8.9016489889603516 24.1936856434599186   T   T   T
  8.5823695711707231 11.2754220527305868 24.1936856434599186   T   T   T
 10.6438040739185595 13.6491951165008274 24.1936856434599186   T   T   T
 12.7052385766663960 16.0229681802710608 24.1936856434599186   T   T   T
 14.7666730794142325 18.3967412440413014 24.1936856434599221   T   T   T
 16.8281075821620760 20.7705143078115348 24.1936856434599221   T   T   T
  4.3762102827357463 23.1442873715817683 24.1936856434599186   T   T   T
  3.4496058850359552  1.1868865317070840 24.1936856434599186   T   T   T
  5.5110403877837939  3.5606595954773210 24.1936856434599186   T   T   T
  7.5724748905316295  5.9344326592475580 24.1936856434599186   T   T   T
  9.6339093932794704  8.3082057230177941 24.1936856434599186   T   T   T
 11.6953438960273051 10.6819787867880311 24.1936856434599186   T   T   T
 13.7567783987751451 13.0557518505582681 24.1936856434599186   T   T   T
 15.8182129015229798 15.4295249143285051 24.1936856434599221   T   T   T
  3.3663156020966536 17.8032979780987404 24.1936856434599186   T   T   T
  6.5625802098925377  0.5934432657645264 24.1936856434599186   T   T   T
  8.6240147126403706  2.9672163295347622 24.1936856434599186   T   T   T
 10.6854492153882124  5.3409893933049997 24.1936856434599186   T   T   T
 12.7468837181360470  7.7147624570752358 24.1936856434599186   T   T   T
 14.8083182208838888 10.0885355208454737 24.1936856434599186   T   T   T
  2.3564209214575609 12.4623085846157124 24.1936856434599186   T   T   T
 12.6635934351967467 24.3311739034668868 24.1936856434599221   T   T   T
 11.7369890374969561  2.3737730635922043 24.1936856434599186   T   T   T
 13.7984235402447908  4.7475461273624413 24.1936856434599186   T   T   T
  1.3465262408184671  7.1213191911326774 24.1936856434599186   T   T   T
 15.7765677600533269 23.7377306375243329 24.1936856434599221   T   T   T
  0.3366315601793740  1.7803297976496471 24.1936856434599186   T   T   T
  5.7643816651248461 21.9574008400527205 30.3411856434599123   T   T   T
  4.8377772674250590  0.0000000001780314 30.3411856434599123   T   T   T
  4.7544869844857542 16.6164114465696890 30.3411856434599123   T   T   T
  6.8159214872335898 18.9901845103399225 30.3411856434599123   T   T   T
  8.8773559899814298 21.3639575741101631 30.3411856434599123   T   T   T
 10.9387904927292663 23.7377306378804001 30.3411856434599159   T   T   T
  3.7445923038466606 11.2754220530866540 30.3411856434599123   T   T   T
  5.8060268065944989 13.6491951168568910 30.3411856434599123   T   T   T
  7.8674613093423353 16.0229681806271280 30.3411856434599123   T   T   T
  9.9288958120901754 18.3967412443973686 30.3411856434599123   T   T   T
 11.9903303148380154 20.7705143081676020 30.3411856434599159   T   T   T
 14.0517648175858483 23.1442873719378390 30.3411856434599159   T   T   T
  2.7346976232075675  5.9344326596036225 30.3411856434599123   T   T   T
  4.7961321259554071  8.3082057233738595 30.3411856434599123   T   T   T
  6.8575666287032417 10.6819787871440965 30.3411856434599123   T   T   T
  8.9190011314510791 13.0557518509143318 30.3411856434599123   T   T   T
 10.9804356341989191 15.4295249146845723 30.3411856434599123   T   T   T
 13.0418701369467556 17.8032979784548040 30.3411856434599123   T   T   T
 15.1033046396945920 20.1770710422250410 30.3411856434599159   T   T   T
 17.1647391424424320 22.5508441059952780 30.3411856434599159   T   T   T
  1.7248029425684741  0.5934432661205916 30.3411856434599123   T   T   T
  3.7862374453163117  2.9672163298908281 30.3411856434599123   T   T   T
  5.8476719480641490  5.3409893936610651 30.3411856434599123   T   T   T
  7.9091064508119855  7.7147624574312994 30.3411856434599123   T   T   T
  9.9705409535598246 10.0885355212015373 30.3411856434599123   T   T   T
 12.0319754563076646 12.4623085849717778 30.3411856434599123   T   T   T
 14.0934099590555046 14.8360816487420095 30.3411856434599123   T   T   T
 16.1548444618033393 17.2098547125122501 30.3411856434599159   T   T   T
  3.7029471623770127 19.5836277762824835 30.3411856434599123   T   T   T
  6.8992117701728946  2.3737730639482701 30.3411856434599123   T   T   T
  8.9606462729207301  4.7475461277185076 30.3411856434599123   T   T   T
 11.0220807756685701  7.1213191914887428 30.3411856434599123   T   T   T
 13.0835152784164102  9.4950922552589780 30.3411856434599123   T   T   T
 15.1449497811642466 11.8688653190292168 30.3411856434599123   T   T   T
  2.6930524817379196 14.2426383827994556 30.3411856434599123   T   T   T
 10.0121860950294739  1.7803297980057111 30.3411856434599123   T   T   T
 12.0736205977773103  4.1541028617759483 30.3411856434599123   T   T   T
 14.1350551005251521  6.5278759255461862 30.3411856434599123   T   T   T
  1.6831578010988266  8.9016489893164206 30.3411856434599123   T   T   T
 13.1251604198860559  1.1868865320631541 30.3411856434599123   T   T   T
  0.6732631204597335  3.5606595958333900 30.3411856434599123   T   T   T
  7.5074587487727760 10.8629237707944242 48.9976306434599280   T   T   T
  7.5074587487727760 13.2629237707944228 48.9976306434599280   T   T   T
  9.9074587487727754 10.8629237707944242 48.9976306434599280   T   T   T
  9.9074587487727754 13.2629237707944228 48.9976306434599280   T   T   T
