Ni Mo Ir Mo C 
 1.0000000000000000
    12.4450793488832367    0.0000000000000000    0.0000000000000008
     3.7335238046649710   28.0221626574395586    0.0000000000000017
     0.0000000000000000    0.0000000000000000   37.1345779189368272
 Ni  Mo  Ir  Mo  C  
 260   9   1 158  84
Selective dynamics
Cartesian
  9.9560634791065876  0.0000000000000016  9.9999999999999982   F   F   F
  7.4670476093299403  0.0000000000000016 10.0000000000000000   F   F   F
  4.9780317395532938  0.0000000000000012 10.0000000000000000   F   F   F
  2.4890158697766469  0.0000000000000006 10.0000000000000018   F   F   F
 -0.0000000000000001  0.0000000000000005 10.0000000000000018   F   F   F
 11.2005714139949113  2.1555509736491985  9.9999999999999982   F   F   F
  8.7115555442182622  2.1555509736491985  9.9999999999999982   F   F   F
  6.2225396744416175  2.1555509736491989 10.0000000000000000   F   F   F
  3.7335238046649710  2.1555509736491993 10.0000000000000000   F   F   F
  1.2445079348883235  2.1555509736491971 10.0000000000000018   F   F   F
 12.4450793488832350  4.3111019472983969 10.0000000000000018   F   F   F
  9.9560634791065894  4.3111019472983969 10.0000000000000000   F   F   F
  7.4670476093299429  4.3111019472983960 10.0000000000000000   F   F   F
  4.9780317395532938  4.3111019472983951 10.0000000000000000   F   F   F
  2.4890158697766469  4.3111019472983951 10.0000000000000000   F   F   F
 11.2005714139949095  6.4666529209475927 10.0000000000000018   F   F   F
  8.7115555442182657  6.4666529209475936 10.0000000000000000   F   F   F
  6.2225396744416193  6.4666529209475936 10.0000000000000000   F   F   F
  3.7335238046649710  6.4666529209475954 10.0000000000000000   F   F   F
  1.2445079348883246  6.4666529209475927 10.0000000000000018   F   F   F
 12.4450793488832350  8.6222038945967903 10.0000000000000000   F   F   F
  9.9560634791065894  8.6222038945967903 10.0000000000000000   F   F   F
  7.4670476093299403  8.6222038945967903 10.0000000000000000   F   F   F
  4.9780317395532938  8.6222038945967903 10.0000000000000000   F   F   F
  2.4890158697766482  8.6222038945967903 10.0000000000000000   F   F   F
 13.6895872837715586 10.7777548682459887 10.0000000000000000   F   F   F
 11.2005714139949148 10.7777548682459887 10.0000000000000000   F   F   F
  8.7115555442182639 10.7777548682459869 10.0000000000000036   F   F   F
  6.2225396744416184 10.7777548682459887 10.0000000000000036   F   F   F
  3.7335238046649719 10.7777548682459869 10.0000000000000018   F   F   F
 12.4450793488832350 12.9333058418951854 10.0000000000000018   F   F   F
  9.9560634791065894 12.9333058418951836 10.0000000000000018   F   F   F
  7.4670476093299420 12.9333058418951854 10.0000000000000036   F   F   F
  4.9780317395532965 12.9333058418951854 10.0000000000000036   F   F   F
  2.4890158697766487 12.9333058418951854 10.0000000000000018   F   F   F
 13.6895872837715604 15.0888568155443856 10.0000000000000000   F   F   F
 11.2005714139949095 15.0888568155443838 10.0000000000000018   F   F   F
  8.7115555442182675 15.0888568155443838 10.0000000000000018   F   F   F
  6.2225396744416184 15.0888568155443838 10.0000000000000018   F   F   F
  3.7335238046649728 15.0888568155443856 10.0000000000000018   F   F   F
 12.4450793488832332 17.2444077891935770 10.0000000000000018   F   F   F
  9.9560634791065876 17.2444077891935770 10.0000000000000018   F   F   F
  7.4670476093299420 17.2444077891935770 10.0000000000000018   F   F   F
  4.9780317395532965 17.2444077891935770 10.0000000000000018   F   F   F
  2.4890158697766478 17.2444077891935770 10.0000000000000018   F   F   F
 13.6895872837715569 19.3999587628427754 10.0000000000000018   F   F   F
 11.2005714139949113 19.3999587628427754 10.0000000000000018   F   F   F
  8.7115555442182639 19.3999587628427754 10.0000000000000018   F   F   F
  6.2225396744416166 19.3999587628427754 10.0000000000000018   F   F   F
  3.7335238046649710 19.3999587628427754 10.0000000000000018   F   F   F
 14.9340952186598805 21.5555097364919739 10.0000000000000036   F   F   F
 12.4450793488832367 21.5555097364919739 10.0000000000000018   F   F   F
  9.9560634791065894 21.5555097364919739 10.0000000000000036   F   F   F
  7.4670476093299403 21.5555097364919739 10.0000000000000036   F   F   F
  4.9780317395532938 21.5555097364919739 10.0000000000000036   F   F   F
 13.6895872837715586 23.7110607101411723 10.0000000000000036   F   F   F
 11.2005714139949148 23.7110607101411723 10.0000000000000036   F   F   F
  8.7115555442182675 23.7110607101411723 10.0000000000000036   F   F   F
  6.2225396744416184 23.7110607101411723 10.0000000000000071   F   F   F
  3.7335238046649710 23.7110607101411723 10.0000000000000071   F   F   F
 14.9340952186598841 25.8666116837903708 10.0000000000000071   F   F   F
 12.4450793488832367 25.8666116837903708 10.0000000000000071   F   F   F
  9.9560634791065912 25.8666116837903708 10.0000000000000071   F   F   F
  7.4670476093299438 25.8666116837903708 10.0000000000000089   F   F   F
  4.9780317395532965 25.8666116837903708 10.0000000000000071   F   F   F
  8.7115555442182657  0.7185169912164010 12.0322729475474848   F   F   F
  6.2225396744416193  0.7185169912164002 12.0322729475474848   F   F   F
  3.7335238046649715  0.7185169912164002 12.0322729475474866   F   F   F
  1.2445079348883241  0.7185169912163997 12.0322729475474866   F   F   F
 11.2005714139949131  0.7185169912164002 12.0322729475474848   F   F   F
  9.9560634791065912  2.8740679648655973 12.0322729475474848   F   F   F
  7.4670476093299394  2.8740679648655978 12.0322729475474848   F   F   F
  4.9780317395532956  2.8740679648655969 12.0322729475474848   F   F   F
  2.4890158697766473  2.8740679648655973 12.0322729475474866   F   F   F
 12.4450793488832350  2.8740679648655956 12.0322729475474883   F   F   F
 11.2005714139949113  5.0296189385147949 12.0322729475474830   F   F   F
  8.7115555442182639  5.0296189385147949 12.0322729475474848   F   F   F
  6.2225396744416193  5.0296189385147967 12.0322729475474866   F   F   F
  3.7335238046649715  5.0296189385147949 12.0322729475474866   F   F   F
  1.2445079348883239  5.0296189385147931 12.0322729475474866   F   F   F
  9.9560634791065912  7.1851699121639916 12.0322729475474866   F   F   F
  7.4670476093299438  7.1851699121639916 12.0322729475474848   F   F   F
  4.9780317395532938  7.1851699121639916 12.0322729475474866   F   F   F
  2.4890158697766482  7.1851699121639916 12.0322729475474866   F   F   F
 12.4450793488832367  7.1851699121639916 12.0322729475474866   F   F   F
 11.2005714139949131  9.3407208858131909 12.0322729475474866   F   F   F
  8.7115555442182657  9.3407208858131909 12.0322729475474866   F   F   F
  6.2225396744416184  9.3407208858131892 12.0322729475474866   F   F   F
  3.7335238046649710  9.3407208858131892 12.0322729475474866   F   F   F
  1.2445079348883255  9.3407208858131927 12.0322729475474866   F   F   F
 12.4450793488832367 11.4962718594623894 12.0322729475474866   F   F   F
  9.9560634791065876 11.4962718594623876 12.0322729475474866   F   F   F
  7.4670476093299412 11.4962718594623876 12.0322729475474883   F   F   F
  4.9780317395532965 11.4962718594623876 12.0322729475474883   F   F   F
  2.4890158697766482 11.4962718594623876 12.0322729475474866   F   F   F
 11.2005714139949148 13.6518228331115861 12.0322729475474866   F   F   F
  8.7115555442182675 13.6518228331115843 12.0322729475474866   F   F   F
  6.2225396744416219 13.6518228331115878 12.0322729475474883   F   F   F
  3.7335238046649724 13.6518228331115843 12.0322729475474866   F   F   F
 13.6895872837715586 13.6518228331115825 12.0322729475474866   F   F   F
 12.4450793488832403 15.8073738067607827 12.0322729475474866   F   F   F
  9.9560634791065894 15.8073738067607827 12.0322729475474866   F   F   F
  7.4670476093299447 15.8073738067607863 12.0322729475474883   F   F   F
  4.9780317395532974 15.8073738067607863 12.0322729475474901   F   F   F
  2.4890158697766505 15.8073738067607863 12.0322729475474901   F   F   F
 11.2005714139949131 17.9629247804099812 12.0322729475474866   F   F   F
  8.7115555442182639 17.9629247804099776 12.0322729475474866   F   F   F
  6.2225396744416184 17.9629247804099812 12.0322729475474883   F   F   F
  3.7335238046649732 17.9629247804099847 12.0322729475474866   F   F   F
 13.6895872837715622 17.9629247804099847 12.0322729475474883   F   F   F
 12.4450793488832367 20.1184757540591761 12.0322729475474866   F   F   F
  9.9560634791065894 20.1184757540591725 12.0322729475474866   F   F   F
  7.4670476093299420 20.1184757540591725 12.0322729475474866   F   F   F
  4.9780317395532947 20.1184757540591725 12.0322729475474883   F   F   F
 14.9340952186598841 20.1184757540591690 12.0322729475474866   F   F   F
 13.6895872837715622 22.2740267277083746 12.0322729475474866   F   F   F
 11.2005714139949166 22.2740267277083746 12.0322729475474883   F   F   F
  8.7115555442182675 22.2740267277083746 12.0322729475474883   F   F   F
  6.2225396744416201 22.2740267277083746 12.0322729475474883   F   F   F
  3.7335238046649724 22.2740267277083746 12.0322729475474883   F   F   F
 12.4450793488832385 24.4295777013575659 12.0322729475474866   F   F   F
  9.9560634791065930 24.4295777013575695 12.0322729475474883   F   F   F
  7.4670476093299447 24.4295777013575695 12.0322729475474883   F   F   F
  4.9780317395532965 24.4295777013575695 12.0322729475474883   F   F   F
 14.9340952186598876 24.4295777013575659 12.0322729475474866   F   F   F
 13.6895872837715622 26.5851286750067715 12.0322729475474830   F   F   F
 11.2005714139949166 26.5851286750067679 12.0322729475474883   F   F   F
  8.7115555442182693 26.5851286750067679 12.0322729475474901   F   F   F
  6.2225396744416201 26.5851286750067679 12.0322729475474883   F   F   F
  3.7335238046649737 26.5851286750067679 12.0322729475474883   F   F   F
  9.9560634791065894  1.4370339824327982 14.0645458950949678   T   T   T
  7.4670476093299412  1.4370339824327973 14.0645458950949678   T   T   T
  4.9780317395532938  1.4370339824327978 14.0645458950949678   T   T   T
  2.4890158697766473  1.4370339824327978 14.0645458950949678   T   T   T
 12.4450793488832332  1.4370339824327982 14.0645458950949660   T   T   T
 11.2005714139949113  3.5925849560819954 14.0645458950949660   T   T   T
  8.7115555442182657  3.5925849560819967 14.0645458950949678   T   T   T
  6.2225396744416175  3.5925849560819958 14.0645458950949678   T   T   T
  3.7335238046649715  3.5925849560819958 14.0645458950949678   T   T   T
  1.2445079348883237  3.5925849560819945 14.0645458950949678   T   T   T
 12.4450793488832367  5.7481359297311929 14.0645458950949678   T   T   T
  9.9560634791065894  5.7481359297311938 14.0645458950949696   T   T   T
  7.4670476093299403  5.7481359297311929 14.0645458950949678   T   T   T
  4.9780317395532938  5.7481359297311929 14.0645458950949678   T   T   T
  2.4890158697766469  5.7481359297311938 14.0645458950949696   T   T   T
 11.2005714139949113  7.9036869033803878 14.0645458950949678   T   T   T
  8.7115555442182639  7.9036869033803878 14.0645458950949678   T   T   T
  6.2225396744416184  7.9036869033803914 14.0645458950949696   T   T   T
  3.7335238046649706  7.9036869033803896 14.0645458950949696   T   T   T
  1.2445079348883241  7.9036869033803878 14.0645458950949696   T   T   T
 12.4450793488832332 10.0592378770295898 14.0645458950949696   T   T   T
  9.9560634791065894 10.0592378770295880 14.0645458950949696   T   T   T
  7.4670476093299412 10.0592378770295898 14.0645458950949696   T   T   T
  4.9780317395532947 10.0592378770295898 14.0645458950949678   T   T   T
  2.4890158697766473 10.0592378770295845 14.0645458950949678   T   T   T
 13.6895872837715569 12.2147888506787883 14.0645458950949696   T   T   T
 11.2005714139949148 12.2147888506787901 14.0645458950949696   T   T   T
  8.7115555442182657 12.2147888506787901 14.0645458950949713   T   T   T
  6.2225396744416184 12.2147888506787883 14.0645458950949713   T   T   T
  3.7335238046649710 12.2147888506787865 14.0645458950949713   T   T   T
 12.4450793488832350 14.3703398243279814 14.0645458950949678   T   T   T
  9.9560634791065894 14.3703398243279779 14.0645458950949696   T   T   T
  7.4670476093299403 14.3703398243279779 14.0645458950949713   T   T   T
  4.9780317395532947 14.3703398243279814 14.0645458950949696   T   T   T
  2.4890158697766482 14.3703398243279832 14.0645458950949713   T   T   T
 13.6895872837715622 16.5258907979771834 14.0645458950949678   T   T   T
 11.2005714139949131 16.5258907979771799 14.0645458950949696   T   T   T
  8.7115555442182711 16.5258907979771834 14.0645458950949678   T   T   T
  6.2225396744416184 16.5258907979771763 14.0645458950949678   T   T   T
  3.7335238046649737 16.5258907979771834 14.0645458950949696   T   T   T
 12.4450793488832367 18.6814417716263783 14.0645458950949678   T   T   T
  9.9560634791065894 18.6814417716263748 14.0645458950949696   T   T   T
  7.4670476093299420 18.6814417716263748 14.0645458950949696   T   T   T
  4.9780317395532956 18.6814417716263748 14.0645458950949696   T   T   T
  2.4890158697766478 18.6814417716263748 14.0645458950949713   T   T   T
 13.6895872837715569 20.8369927452755697 14.0645458950949678   T   T   T
 11.2005714139949113 20.8369927452755697 14.0645458950949696   T   T   T
  8.7115555442182622 20.8369927452755661 14.0645458950949713   T   T   T
  6.2225396744416184 20.8369927452755697 14.0645458950949696   T   T   T
  3.7335238046649710 20.8369927452755697 14.0645458950949713   T   T   T
 14.9340952186598823 22.9925437189247681 14.0645458950949713   T   T   T
 12.4450793488832403 22.9925437189247717 14.0645458950949713   T   T   T
  9.9560634791065894 22.9925437189247717 14.0645458950949713   T   T   T
  7.4670476093299420 22.9925437189247717 14.0645458950949713   T   T   T
  4.9780317395532956 22.9925437189247717 14.0645458950949713   T   T   T
 13.6895872837715569 25.1480946925739737 14.0645458950949713   T   T   T
 11.2005714139949131 25.1480946925739737 14.0645458950949713   T   T   T
  8.7115555442182675 25.1480946925739737 14.0645458950949678   T   T   T
  6.2225396744416193 25.1480946925739737 14.0645458950949713   T   T   T
  3.7335238046649728 25.1480946925739737 14.0645458950949713   T   T   T
 14.9340952186598859 27.3036456662231721 14.0645458950949660   T   T   T
 12.4450793488832367 27.3036456662231686 14.0645458950949678   T   T   T
  9.9560634791065894 27.3036456662231686 14.0645458950949713   T   T   T
  7.4670476093299438 27.3036456662231686 14.0645458950949678   T   T   T
  4.9780317395532983 27.3036456662231686 14.0645458950949713   T   T   T
  9.9560634791065894  0.0000000000000008 16.0968188426424490   T   T   T
  7.4670476093299420  0.0000000000000008 16.0968188426424490   T   T   T
  4.9780317395532938  0.0000000000000008 16.0968188426424490   T   T   T
  2.4890158697766469  0.0000000000000008 16.0968188426424490   T   T   T
  0.0000000000000001  0.0000000000000008 16.0968188426424561   T   T   T
 11.2005714139949095  2.1555509736491993 16.0968188426424490   T   T   T
  8.7115555442182639  2.1555509736491976 16.0968188426424490   T   T   T
  6.2225396744416184  2.1555509736491993 16.0968188426424490   T   T   T
  3.7335238046649715  2.1555509736491980 16.0968188426424490   T   T   T
  1.2445079348883235  2.1555509736491976 16.0968188426424561   T   T   T
 12.4450793488832350  4.3111019472983978 16.0968188426424490   T   T   T
  9.9560634791065894  4.3111019472983960 16.0968188426424490   T   T   T
  7.4670476093299429  4.3111019472983951 16.0968188426424490   T   T   T
  4.9780317395532938  4.3111019472983951 16.0968188426424490   T   T   T
  2.4890158697766469  4.3111019472983951 16.0968188426424561   T   T   T
 11.2005714139949113  6.4666529209475918 16.0968188426424490   T   T   T
  8.7115555442182657  6.4666529209475927 16.0968188426424490   T   T   T
  6.2225396744416175  6.4666529209475927 16.0968188426424490   T   T   T
  3.7335238046649701  6.4666529209475927 16.0968188426424490   T   T   T
  1.2445079348883243  6.4666529209475927 16.0968188426424561   T   T   T
 12.4450793488832350  8.6222038945967903 16.0968188426424490   T   T   T
  9.9560634791065894  8.6222038945967920 16.0968188426424490   T   T   T
  7.4670476093299403  8.6222038945967903 16.0968188426424490   T   T   T
  4.9780317395532956  8.6222038945967903 16.0968188426424490   T   T   T
  2.4890158697766482  8.6222038945967885 16.0968188426424561   T   T   T
 13.6895872837715622 10.7777548682459887 16.0968188426424490   T   T   T
 11.2005714139949166 10.7777548682459905 16.0968188426424490   T   T   T
  8.7115555442182639 10.7777548682459869 16.0968188426424490   T   T   T
  6.2225396744416184 10.7777548682459869 16.0968188426424490   T   T   T
  3.7335238046649706 10.7777548682459869 16.0968188426424561   T   T   T
 12.4450793488832350 12.9333058418951854 16.0968188426424490   T   T   T
  9.9560634791065894 12.9333058418951854 16.0968188426424490   T   T   T
  7.4670476093299429 12.9333058418951854 16.0968188426424490   T   T   T
  4.9780317395532956 12.9333058418951854 16.0968188426424561   T   T   T
  2.4890158697766487 12.9333058418951854 16.0968188426424561   T   T   T
 13.6895872837715658 15.0888568155443927 16.0968188426424490   T   T   T
 11.2005714139949113 15.0888568155443856 16.0968188426424561   T   T   T
  8.7115555442182693 15.0888568155443856 16.0968188426424490   T   T   T
  6.2225396744416175 15.0888568155443838 16.0968188426424561   T   T   T
  3.7335238046649737 15.0888568155443892 16.0968188426424561   T   T   T
 12.4450793488832350 17.2444077891935770 16.0968188426424561   T   T   T
  9.9560634791065894 17.2444077891935770 16.0968188426424561   T   T   T
  7.4670476093299429 17.2444077891935770 16.0968188426424561   T   T   T
  4.9780317395532965 17.2444077891935841 16.0968188426424561   T   T   T
  2.4890158697766478 17.2444077891935770 16.0968188426424561   T   T   T
 13.6895872837715569 19.3999587628427754 16.0968188426424561   T   T   T
 11.2005714139949131 19.3999587628427719 16.0968188426424490   T   T   T
  8.7115555442182639 19.3999587628427719 16.0968188426424490   T   T   T
  6.2225396744416166 19.3999587628427754 16.0968188426424561   T   T   T
  3.7335238046649710 19.3999587628427754 16.0968188426424561   T   T   T
 14.9340952186598859 21.5555097364919739 16.0968188426424561   T   T   T
 12.4450793488832350 21.5555097364919739 16.0968188426424561   T   T   T
  9.9560634791065894 21.5555097364919739 16.0968188426424490   T   T   T
  7.4670476093299429 21.5555097364919739 16.0968188426424561   T   T   T
  4.9780317395532947 21.5555097364919739 16.0968188426424561   T   T   T
 13.6895872837715586 23.7110607101411723 16.0968188426424561   T   T   T
 11.2005714139949113 23.7110607101411723 16.0968188426424561   T   T   T
  8.7115555442182657 23.7110607101411723 16.0968188426424561   T   T   T
  6.2225396744416201 23.7110607101411723 16.0968188426424561   T   T   T
  3.7335238046649710 23.7110607101411723 16.0968188426424561   T   T   T
 14.9340952186598876 25.8666116837903743 16.0968188426424561   T   T   T
 12.4450793488832367 25.8666116837903708 16.0968188426424561   T   T   T
  9.9560634791065912 25.8666116837903708 16.0968188426424561   T   T   T
  7.4670476093299447 25.8666116837903708 16.0968188426424561   T   T   T
  4.9780317395532983 25.8666116837903708 16.0968188426424561   T   T   T
  3.0171018703015751 20.7312262165171077 24.8614917367623462   T   T   T
  8.8840678490608180 24.7343923104370482 24.8614917367623534   T   T   T
  3.7282492616663299 12.7248940286772338 24.8614917367623534   T   T   T
  9.5952152404255724 16.7280601225971708 24.8614917367623534   T   T   T
 -1.4275693257281559  0.7153957469174235 24.8614917367623534   T   T   T
  4.4393966530310855  4.7185618408373600 24.8614917367623534   T   T   T
 -2.1387167170929118  8.7217279347572969 24.8614917367623534   T   T   T
  1.1653047277115391 19.9937060276968737 27.1345779189368201   T   T   T
  7.0322707064707828 23.9968721216168177 27.1345779189368201   T   T   T
  1.8764521190762948 11.9873738398570016 27.1345779189368272   T   T   T
  7.7434180978355354 15.9905399337769367 27.1345779189368201   T   T   T
  9.1657128805650459 -0.0221244419028114 27.1345779189368272   T   T   T
  2.5875995104410490  3.9810416520171255 27.1345779189368272   T   T   T
  8.4545654892002897  7.9842077459370628 27.1345779189368272   T   T   T
  5.9408825545105106 20.4244466541097225 25.1160773891658877   T   T   T
 -0.6372308156134863 24.4276127480296630 25.1160773891658948   T   T   T
  6.6520299458752676 12.4181144662698539 25.1160773891658948   T   T   T
  0.0739165757512730 16.4212805601897891 25.1160773891658877   T   T   T
  1.4962113584807817  0.4086161845100406 25.1160773891658877   T   T   T
  7.3631773372400211  4.4117822784299765 25.1160773891658877   T   T   T
  0.7850639671160264  8.4149483723499117 25.1160773891658877   T   T   T
  8.5038512653190530 21.8197748515503420 25.6191871308205066   T   T   T
  1.9257378951950579 25.8229409454702790 25.6191871308205066   T   T   T
  9.2149986566838127 13.8134426637104699 25.6191871308205066   T   T   T
  2.6368852865598189 17.8166087576304051 25.6191871308205066   T   T   T
  4.0591800692893241  1.8039443819506567 25.6191871308205066   T   T   T
 -2.5189333008346688  5.8071104758705943 25.6191871308205066   T   T   T
  3.3480326779245710  9.8102765697905312 25.6191871308205066   T   T   T
  0.4541331594930313 19.3358980190764882 24.3583819951077345   T   T   T
  6.3210991382522712 23.3390641129964287 24.3583819951077274   T   T   T
  1.1652805508577855 11.3295658312366196 24.3583819951077345   T   T   T
  7.0322465296170273 15.3327319251565530 24.3583819951077345   T   T   T
 -0.2570142318717257 27.3422302069163692 24.3583819951077274   T   T   T
  1.8764279422225407  3.3232336433967413 24.3583819951077345   T   T   T
  7.7433939209817817  7.3263997373166792 24.3583819951077345   T   T   T
  8.1236346815772968 18.9051573926636429 26.3768825248786669   T   T   T
  1.5455213114532997 22.9083234865835799 26.3768825248786669   T   T   T
  8.8347820729420512 10.8988252048237655 26.3768825248786669   T   T   T
  2.2566687028180548 14.9019912987437042 26.3768825248786669   T   T   T
  7.4124872902125389 26.9114895805035168 26.3768825248786669   T   T   T
  9.5459294643068091  2.8924930169838925 26.3768825248786669   T   T   T
  2.9678160941828104  6.8956591109038277 26.3768825248786669   T   T   T
  5.5606659707687527 17.5098291952230198 25.8737727832240481   T   T   T
 11.4276319495279921 21.5129952891429639 25.8737727832240552   T   T   T
  6.2718133621335088  9.5034970073831513 25.8737727832240552   T   T   T
 -0.3063000079904881 13.5066631013030882 25.8737727832240481   T   T   T
  4.8495185794039948 25.5161613830629008 25.8737727832240481   T   T   T
  6.9829607534982623  1.4971648195432745 25.8737727832240481   T   T   T
  0.4048473833742675  5.5003309134632117 25.8737727832240481   T   T   T
 11.0474153657862288 18.5983778302562541 26.6314681772822013   T   T   T
  4.4693019956622404 22.6015439241761946 26.6314681772822084   T   T   T
 -0.6865165917322467 10.5920456424163838 26.6314681772822084   T   T   T
  5.1804493870269939 14.5952117363363190 26.6314681772822084   T   T   T
 10.3362679744214780 26.6047100180961351 26.6314681772822084   T   T   T
  0.0246307996325048  2.5857134545765081 26.6314681772822084   T   T   T
  5.8915967783917509  6.5888795484964451 26.6314681772822084   T   T   T
 -0.6178503821258716 20.3801977703041040 21.8307101605297120   T   T   T
  5.2491155966333700 24.3833638642240480 21.8307101605297120   T   T   T
  0.0932970092388834 12.3738655824642318 21.8307101605297120   T   T   T
  5.9602629879981244 16.3770316763841706 21.8307101605297120   T   T   T
 -5.0625215781556037  0.3643673007044214 21.8307101605297191   T   T   T
  0.8044444006036389  4.3675333946243580 21.8307101605297120   T   T   T
 -5.7736689695203580  8.3706994885442949 21.8307101605297120   T   T   T
 -2.4696475247159104 19.6426775814838734 24.1037963427041859   T   T   T
  3.3973184540433308 23.6458436754038104 24.1037963427041859   T   T   T
 -1.7585001333511565 11.6363453936439996 24.1037963427041859   T   T   T
  4.1084658454080891 15.6395114875639347 24.1037963427041859   T   T   T
  5.5307606281375978 -0.3731528881158122 24.1037963427041859   T   T   T
 -1.0473527419863990  3.6300132058041243 24.1037963427041859   T   T   T
  4.8196132367728426  7.6331792997240617 24.1037963427041930   T   T   T
  2.3059303020830635 20.0734182078967223 22.0852958129332535   T   T   T
 -4.2721830680409312 24.0765843018166592 22.0852958129332606   T   T   T
  3.0170776934478214 12.0670860200568519 22.0852958129332606   T   T   T
 -3.5610356766761719 16.0702521139767853 22.0852958129332606   T   T   T
 -2.1387408939466650  0.0575877382970382 22.0852958129332606   T   T   T
  3.7282250848125731  4.0607538322169727 22.0852958129332606   T   T   T
 -2.8498882853114198  8.0639199261369114 22.0852958129332606   T   T   T
  4.8688990128916059 21.4687464053373382 22.5884055545878724   T   T   T
 -1.7092143572323879 25.4719124992572787 22.5884055545878724   T   T   T
  5.5800464042563656 13.4624142174974661 22.5884055545878724   T   T   T
 -0.9980669658676300 17.4655803114174049 22.5884055545878724   T   T   T
  0.4242278168618799  1.4529159357376553 22.5884055545878724   T   T   T
 -6.1538855532621151  5.4560820296575914 22.5884055545878724   T   T   T
 -0.2869195745028754  9.4592481235775292 22.5884055545878724   T   T   T
 -3.1808190929344162 18.9848695728634844 21.3276004188750932   T   T   T
  2.6861468858248241 22.9880356667834285 21.3276004188750932   T   T   T
 -2.4696717015696601 10.9785373850236159 21.3276004188750932   T   T   T
  3.3972942771895811 14.9817034789435510 21.3276004188750932   T   T   T
 -3.8919664842991732 26.9912017607033690 21.3276004188750932   T   T   T
 -1.7585243102049066  2.9722051971837402 21.3276004188750932   T   T   T
  4.1084416685543355  6.9753712911036772 21.3276004188750932   T   T   T
  4.4886824291498488 18.5541289464506391 23.3461009486460256   T   T   T
 -2.0894309409741467 22.5572950403705761 23.3461009486460327   T   T   T
  5.1998298205146032 10.5477967586107635 23.3461009486460256   T   T   T
 -1.3782835496093928 14.5509628525307004 23.3461009486460256   T   T   T
  3.7775350377850914 26.5604611342905166 23.3461009486460256   T   T   T
  5.9109772118793602  2.5414645707708901 23.3461009486460327   T   T   T
 -0.6671361582446365  6.5446306646908265 23.3461009486460327   T   T   T
  1.9257137183413062 17.1588007490100196 22.8429912069914138   T   T   T
  7.7926796971005459 21.1619668429299566 22.8429912069914138   T   T   T
  2.6368611097060608  9.1524685611701493 22.8429912069914209   T   T   T
 -3.9412522604179347 13.1556346550900862 22.8429912069914138   T   T   T
  1.2145663269765459 25.1651329368498970 22.8429912069914138   T   T   T
  3.3480085010708156  1.1461363733302734 22.8429912069914138   T   T   T
 -3.2301048690531826  5.1493024672502106 22.8429912069914138   T   T   T
  7.4124631133587844 18.2473493840432504 23.6006866010495671   T   T   T
  0.8343497432347928 22.2505154779631980 23.6006866010495742   T   T   T
 -4.3214688441596980 10.2410171962033818 23.6006866010495742   T   T   T
  1.5454971345995463 14.2441832901233170 23.6006866010495742   T   T   T
  6.7013157219940300 26.2536815718831313 23.6006866010495742   T   T   T
 -3.6103214527949437  2.2346850083635053 23.6006866010495742   T   T   T
  2.2566445259643002  6.2378511022834422 23.6006866010495742   T   T   T
 -4.2528026345533210 20.0291693240911037 18.7999285842970778   T   T   T
  1.6141633442059216 24.0323354180110442 18.7999285842970778   T   T   T
 -3.5416552431885648 12.0228371362512316 18.7999285842970778   T   T   T
  2.3253107355706759 16.0260032301711668 18.7999285842970778   T   T   T
 -8.6974738305830535  0.0133388544914201 18.7999285842970778   T   T   T
 -2.8305078518238123  4.0165049484113560 18.7999285842970778   T   T   T
 -9.4086212219478078  8.0196710423312929 18.7999285842970778   T   T   T
 -6.1045997771433544 19.2916491352708732 21.0730147664715446   T   T   T
 -0.2376337983841141 23.2948152291908066 21.0730147664715446   T   T   T
 -5.3934523857786072 11.2853169474309958 21.0730147664715517   T   T   T
  0.4735135929806409 15.2884830413509309 21.0730147664715517   T   T   T
  1.8958083757101489 -0.7241813343288146 21.0730147664715517   T   T   T
 -4.6823049944138484  3.2789847595911223 21.0730147664715517   T   T   T
  1.1846609843453952  7.2821508535110580 21.0730147664715588   T   T   T
 -1.3290219503443783 19.7223897616837220 19.0545142367006264   T   T   T
 -7.9071353204683739 23.7255558556036625 19.0545142367006193   T   T   T
 -0.6178745589796271 11.7160575738438482 19.0545142367006193   T   T   T
 -7.1959879291036186 15.7192236677637833 19.0545142367006193   T   T   T
 -5.7736931463741117 -0.2934407079159634 19.0545142367006264   T   T   T
  0.0932728323851296  3.7097253860039738 19.0545142367006193   T   T   T
 -6.4848405377388643  7.7128914799239103 19.0545142367006193   T   T   T
  1.2339467604641596 21.1177179591243345 19.5576239783552452   T   T   T
 -5.3441666096598368 25.1208840530442785 19.5576239783552381   T   T   T
  1.9450941518289171 13.1113857712844659 19.5576239783552381   T   T   T
 -4.6330192182950771 17.1145518652044011 19.5576239783552381   T   T   T
 -3.2107244355655671  1.1018874895246538 19.5576239783552452   T   T   T
 -9.7888378056895657  5.1050535834445894 19.5576239783552452   T   T   T
 -3.9218718269303219  9.1082196773645272 19.5576239783552452   T   T   T
 -6.8157713453618598 18.6338411266504842 18.2968188426424589   T   T   T
 -0.9488053666026226 22.6370072205704247 18.2968188426424589   T   T   T
 -6.1046239539971054 10.6275089388106121 18.2968188426424589   T   T   T
 -0.2376579752378674 14.6306750327305508 18.2968188426424589   T   T   T
 -7.5269187367266213 26.6401733144903652 18.2968188426424589   T   T   T
 -5.3934765626323520  2.6211767509707391 18.2968188426424589   T   T   T
  0.4734894161268914  6.6243428448906760 18.2968188426424589   T   T   T
  0.8537301767224001 18.2031005002376354 20.3153193724133985   T   T   T
 -5.7243831934015930 22.2062665941575759 20.3153193724133985   T   T   T
  1.5648775680871561 10.1967683123977615 20.3153193724133985   T   T   T
 -5.0132358020368404 14.1999344063176984 20.3153193724133985   T   T   T
  0.1425827853576447 26.2094326880775128 20.3153193724133914   T   T   T
  2.2760249594519109  2.1904361245578876 20.3153193724133985   T   T   T
 -4.3020884106720851  6.1936022184778246 20.3153193724133985   T   T   T
 -1.7092385340861411 16.8077723027970158 19.8122096307587796   T   T   T
  4.1577274446730996 20.8109383967169563 19.8122096307587796   T   T   T
 -0.9980911427213863  8.8014401149571455 19.8122096307587796   T   T   T
 -7.5762045128453810 12.8046062088770807 19.8122096307587796   T   T   T
 -2.4203859254508999 24.8141044906369004 19.8122096307587796   T   T   T
 -0.2869437513566336  0.7951079271172705 19.8122096307587796   T   T   T
 -6.8650571214806302  4.7982740210372077 19.8122096307587796   T   T   T
  3.7775108609313399 17.8963209378302537 20.5699050248169328   T   T   T
 -2.8006025091926596 21.8994870317501906 20.5699050248169399   T   T   T
 -7.9564210965871487  9.8899887499903798 20.5699050248169399   T   T   T
 -2.0894551178279022 13.8931548439103150 20.5699050248169399   T   T   T
  3.0663634695665811 25.9026531256701276 20.5699050248169328   T   T   T
 -7.2452737052223899  1.8836565621505053 20.5699050248169399   T   T   T
 -1.3783077264631476  5.8868226560704411 20.5699050248169399   T   T   T
  4.2888839205351630 19.1205277058700673 25.3676322599932007   T   T   T
 10.1558498992944095 23.1236937997900043 25.3676322599932007   T   T   T
  5.0000313118999173 11.1141955180301899 25.3676322599932007   T   T   T
 -1.5780820582240747 15.1173616119501304 25.3676322599932007   T   T   T
  3.5777365291704046 27.1268598937099412 25.3676322599932007   T   T   T
  5.7111787032646744  3.1078633301903169 25.3676322599932007   T   T   T
 -0.8669346668593236  7.1110294241102547 25.3676322599932007   T   T   T
  9.7756333155526463 20.2090763409032945 26.1253276540513539   T   T   T
  3.1975199454286520 24.2122424348232386 26.1253276540513539   T   T   T
 10.4867807069174006 12.2027441530634260 26.1253276540513610   T   T   T
  3.9086673367934024 16.2059102469833611 26.1253276540513610   T   T   T
  5.3309621195229147  0.1932458713036148 26.1253276540513610   T   T   T
 -1.2471512506010822  4.1964119652235503 26.1253276540513539   T   T   T
  4.6198147281581594  8.1995780591434855 26.1253276540513610   T   T   T
  6.4865766304906476 22.2106593878632665 26.1253276540513539   T   T   T
 12.3535426092498906 26.2138254817832070 26.1253276540513610   T   T   T
  7.1977240218554011 14.2043272000233927 26.1253276540513610   T   T   T
  0.6196106517314053 18.2074932939433296 26.1253276540513539   T   T   T
  2.0419054344609160  2.1948289182635841 26.1253276540513610   T   T   T
  7.9088714132201572  6.1979950121835197 26.1253276540513610   T   T   T
  1.3307580430961585 10.2011611061034557 26.1253276540513610   T   T   T
  7.5779406055971599 17.1189446589100953 25.3676322599932007   T   T   T
  0.9998272354731650 21.1221107528300323 25.3676322599932007   T   T   T
  8.2890879969619160  9.1126124710702214 25.3676322599932007   T   T   T
  1.7109746268379205 13.1157785649901566 25.3676322599932007   T   T   T
  6.8667932142324046 25.1252768467499692 25.3676322599932007   T   T   T
 -3.4448439605565628  1.1062802832303471 25.3676322599932007   T   T   T
  2.4221220182026739  5.1094463771502845 25.3676322599932007   T   T   T
  0.6539316681077152 18.7694992596570636 22.3368506837605594   T   T   T
  6.5208976468669597 22.7726653535770005 22.3368506837605594   T   T   T
  1.3650790594724702 10.7631670718171897 22.3368506837605665   T   T   T
 -5.2130343106515209 14.7663331657371284 22.3368506837605594   T   T   T
 -0.0572157232570421 26.7758314474969410 22.3368506837605594   T   T   T
  2.0762264508372268  2.7568348839773154 22.3368506837605594   T   T   T
 -4.5018869192867710  6.7600009778972519 22.3368506837605594   T   T   T
  6.1406810631251991 19.8580478946902943 23.0945460778187268   T   T   T
 -0.4374323069987938 23.8612139886102383 23.0945460778187197   T   T   T
  6.8518284544899544 11.8517157068504240 23.0945460778187268   T   T   T
  0.2737150843659564 15.8548818007703609 23.0945460778187268   T   T   T
  1.6960098670954686 -0.1577825749093868 23.0945460778187268   T   T   T
 -4.8821035030285280  3.8453835190105492 23.0945460778187268   T   T   T
  0.9848624757307127  7.8485496129304853 23.0945460778187268   T   T   T
  2.8516243780632022 21.8596309416502628 23.0945460778187268   T   T   T
  8.7185903568224461 25.8627970355702068 23.0945460778187268   T   T   T
  3.5627717694279539 13.8532987538103924 23.0945460778187268   T   T   T
 -3.0153416006960425 17.8564648477303294 23.0945460778187268   T   T   T
 -1.5930468179665300  1.8438004720505823 23.0945460778187268   T   T   T
  4.2739191607927092  5.8469665659705177 23.0945460778187268   T   T   T
 -2.3041942093312882  9.8501326598904555 23.0945460778187268   T   T   T
  3.9429883531697127 16.7679162126970915 22.3368506837605594   T   T   T
 -2.6351250169542810 20.7710823066170320 22.3368506837605594   T   T   T
  4.6541357445344680  8.7615840248572194 22.3368506837605594   T   T   T
 -1.9239776255895222 12.7647501187771581 22.3368506837605594   T   T   T
  3.2318409618049562 24.7742484005369690 22.3368506837605594   T   T   T
 -7.0797962129840091  0.7552518370173456 22.3368506837605594   T   T   T
 -1.2128302342247719  4.7584179309372825 22.3368506837605594   T   T   T
 -2.9810205843197326 18.4184708134440598 19.3060691075279252   T   T   T
  2.8859453944395104 22.4216369073640003 19.3060691075279252   T   T   T
 -2.2698731929549778 10.4121386256041877 19.3060691075279323   T   T   T
 -8.8479865630789707 14.4153047195241264 19.3060691075279252   T   T   T
 -3.6921679756844941 26.4248030012839372 19.3060691075279252   T   T   T
 -1.5587258015902223  2.4058064377643134 19.3060691075279252   T   T   T
 -8.1368391717142199  6.4089725316842499 19.3060691075279252   T   T   T
  2.5057288106977507 19.5070194484772905 20.0637645015860926   T   T   T
 -4.0723845594262400 23.5101855423972346 20.0637645015860855   T   T   T
  3.2168762020625050 11.5006872606374202 20.0637645015860926   T   T   T
 -3.3612371680614919 15.5038533545573589 20.0637645015860926   T   T   T
 -1.9389423853319798 -0.5088110211223892 20.0637645015860926   T   T   T
 -8.5170557554559778  3.4943550727975476 20.0637645015860926   T   T   T
 -2.6500897766967348  7.4975211667174824 20.0637645015860926   T   T   T
 -0.7833278743642453 21.5086024954372625 20.0637645015860926   T   T   T
  5.0836381043949972 25.5117685893572030 20.0637645015860926   T   T   T
 -0.0721804829994936 13.5022703075973904 20.0637645015860926   T   T   T
 -6.6502938531234861 17.5054364015173256 20.0637645015860855   T   T   T
 -5.2279990703939774  1.4927720258375803 20.0637645015860926   T   T   T
  0.6389669083652598  5.4959381197575166 20.0637645015860855   T   T   T
 -5.9391464617587371  9.4991042136774535 20.0637645015860926   T   T   T
  0.3080361007422667 16.4168877664840913 19.3060691075279252   T   T   T
 -6.2700772693817282 20.4200538604040283 19.3060691075279252   T   T   T
  1.0191834921070229  8.4105555786442210 19.3060691075279252   T   T   T
 -5.5589298780169685 12.4137216725641579 19.3060691075279323   T   T   T
 -0.4031112906224879 24.4232199543239652 19.3060691075279323   T   T   T
 -10.7147484654114571  0.4042233908043444 19.3060691075279323   T   T   T
 -4.8477824866522194  4.4073894847242805 19.3060691075279252   T   T   T
