Mo C  Mo C  Mo C  Mo C  Mo C  Mo C  Mo C  Mo C  Mo C  Mo C  Mo C  Mo C  Mo C  Mo C  Mo C  Mo C  Mo C  Mo C  Mo C  Mo C  Mo C  Mo C  Mo C  Mo C  Mo C  Mo C  Mo C  Mo C  Mo C  Mo C  Mo C  Mo C  Mo C  Mo C  Mo C  Mo C  Mo C  Mo C  Mo C  Mo C  Mo C  Mo C  Mo C  Mo C  Mo C  Mo C  Mo C  Mo C  Mo C  Mo C  Mo C  Mo C  Mo C  Mo C  Mo C  Mo C  Mo C  Mo C  Mo C  Mo C 
 1.0000000000000000
    86.0687500000000085    0.0000000000000000    0.0000000000000053
     0.0000000000000029   18.0660000000000025    0.0000000000000011
     0.0000000000000000    0.0000000000000000   29.5276300000000056
 Mo  C   Mo  C   Mo  C   Mo  C   Mo  C   Mo  C   Mo  C   Mo  C   Mo  C   Mo  C   Mo  C   Mo  C   Mo  C   Mo  C   Mo  C   Mo  C   Mo  C   Mo  C   Mo  C   Mo  C   Mo  C   Mo  C   Mo  C   Mo  C   Mo  C   Mo  C   Mo  C   Mo  C   Mo  C   Mo  C   Mo  C   Mo  C   Mo  C   Mo  C   Mo  C   Mo  C   Mo  C   Mo  C   Mo  C   Mo  C   Mo  C   Mo  C   Mo  C   Mo  C   Mo  C   Mo  C   Mo  C   Mo  C   Mo  C   Mo  C   Mo  C   Mo  C   Mo  C   Mo  C   Mo  C   Mo  C   Mo  C   Mo  C   Mo  C   Mo  C  
   8   2   8   2   8   2   8   2   8   2   8   2   8   4   8   4   8   4   8   4   8   4   8   4   8   4   8   4   8   4   8   4   8   4   8   4   8   4   8   4   8   4   8   4   8   4   8   4   8   4   8   4   8   4   8   4   8   4   8   4   8   4   8   4   8   4   8   4   8   4   8   4   8   4   8   4   8   4   8   4   8   4   8   4   8   4   8   4   8   4   8   4   8   4   8   4   8   4   8   4   8   4   8   4   8   4   8   4   8   2   8   2   8   2   8   2   8   2   8   2
Selective dynamics
Cartesian
 23.5437499999999957  0.7527500000000000 11.7351300000000016   F   F   F
 23.5437499999999957  5.2692500000000004 14.3326300000000018   F   F   F
 21.1812499999999986  2.2582500000000003 12.5975000000000037   F   F   F
 23.5437499999999957  2.2582500000000003 14.3326300000000018   F   F   F
 21.1812499999999950  0.7527500000000000 10.0000000000000036   F   F   F
 23.5437499999999957  3.7637499999999999 11.7351300000000016   F   F   F
 21.1812499999999986  3.7637499999999999 10.0000000000000036   F   F   F
 21.1812499999999986  5.2692500000000004 12.5975000000000037   F   F   F
 22.3624999999999972  2.2582500000000003 10.8675650000000026   F   F   F
 22.3624999999999972  3.7637499999999999 13.4650650000000027   F   F   F
 23.5437499999999957  0.7527500000000000 16.9301300000000019   T   T   T
 23.5437499999999957  5.2692500000000004 19.5276300000000020   T   T   T
 21.1812499999999986  2.2582500000000003 17.7925000000000040   T   T   T
 23.5437499999999957  2.2582500000000003 19.5276300000000020   T   T   T
 21.1812499999999950  0.7527500000000000 15.1950000000000003   T   T   T
 23.5437499999999957  3.7637499999999999 16.9301300000000019   T   T   T
 21.1812499999999986  3.7637499999999999 15.1950000000000003   T   T   T
 21.1812499999999986  5.2692500000000004 17.7925000000000040   T   T   T
 22.3624999999999972  2.2582500000000003 16.0625650000000029   T   T   T
 22.3624999999999972  3.7637499999999999 18.6600650000000030   T   T   T
 23.5437499999999957  6.7747500000000000 11.7351300000000016   F   F   F
 23.5437499999999993 11.2912500000000016 14.3326300000000018   F   F   F
 21.1812499999999986  8.2802500000000006 12.5975000000000037   F   F   F
 23.5437499999999957  8.2802500000000006 14.3326300000000018   F   F   F
 21.1812499999999986  6.7747500000000000 10.0000000000000036   F   F   F
 23.5437499999999957  9.7857500000000002 11.7351300000000052   F   F   F
 21.1812499999999986  9.7857500000000002 10.0000000000000036   F   F   F
 21.1812499999999986 11.2912500000000016 12.5975000000000037   F   F   F
 22.3624999999999972  8.2802500000000006 10.8675650000000026   F   F   F
 22.3624999999999972  9.7857500000000002 13.4650650000000027   F   F   F
 23.5437499999999957  6.7747500000000000 16.9301300000000019   T   T   T
 23.5437499999999993 11.2912500000000016 19.5276300000000020   T   T   T
 21.1812499999999986  8.2802500000000006 17.7925000000000040   T   T   T
 23.5437499999999957  8.2802500000000006 19.5276300000000020   T   T   T
 21.1812499999999986  6.7747500000000000 15.1950000000000003   T   T   T
 23.5437499999999957  9.7857500000000002 16.9301300000000019   T   T   T
 21.1812499999999986  9.7857500000000002 15.1950000000000003   T   T   T
 21.1812499999999986 11.2912500000000016 17.7925000000000040   T   T   T
 22.3624999999999972  8.2802500000000006 16.0625650000000029   T   T   T
 22.3624999999999972  9.7857500000000002 18.6600650000000030   T   T   T
 23.5437499999999993 12.7967500000000012 11.7351300000000052   F   F   F
 23.5437499999999993 17.3132500000000000 14.3326300000000018   F   F   F
 21.1812499999999986 14.3022500000000008 12.5975000000000037   F   F   F
 23.5437499999999993 14.3022500000000008 14.3326300000000018   F   F   F
 21.1812499999999986 12.7967500000000012 10.0000000000000036   F   F   F
 23.5437499999999993 15.8077500000000004 11.7351300000000052   F   F   F
 21.1812499999999986 15.8077500000000004 10.0000000000000036   F   F   F
 21.1812499999999986 17.3132500000000000 12.5975000000000037   F   F   F
 22.3624999999999972 14.3022500000000008 10.8675650000000026   F   F   F
 22.3624999999999972 15.8077500000000004 13.4650650000000027   F   F   F
 23.5437499999999993 12.7967500000000012 16.9301300000000019   T   T   T
 23.5437499999999993 17.3132500000000000 19.5276300000000020   T   T   T
 21.1812499999999986 14.3022500000000008 17.7925000000000040   T   T   T
 23.5437499999999993 14.3022500000000008 19.5276300000000020   T   T   T
 21.1812499999999986 12.7967500000000012 15.1950000000000038   T   T   T
 23.5437499999999993 15.8077500000000004 16.9301300000000055   T   T   T
 21.1812499999999986 15.8077500000000004 15.1950000000000038   T   T   T
 21.1812499999999986 17.3132500000000000 17.7925000000000040   T   T   T
 22.3624999999999972 14.3022500000000008 16.0625650000000029   T   T   T
 22.3624999999999972 15.8077500000000004 18.6600650000000030   T   T   T
 28.2687499999999972  0.7527500000000000 11.7351300000000016   F   F   F
 28.2687499999999972  5.2692500000000004 14.3326300000000018   F   F   F
 25.9062499999999964  2.2582500000000003 12.5975000000000037   F   F   F
 28.2687499999999972  2.2582500000000003 14.3326300000000018   F   F   F
 25.9062499999999964  0.7527500000000000 10.0000000000000036   F   F   F
 28.2687499999999972  3.7637499999999999 11.7351300000000052   F   F   F
 25.9062499999999964  3.7637499999999999 10.0000000000000036   F   F   F
 25.9062499999999964  5.2692500000000004 12.5975000000000037   F   F   F
 27.0874999999999986  2.2582500000000003 10.8675650000000026   F   F   F
 27.0874999999999986  3.7637499999999999 13.4650650000000027   F   F   F
 24.7249999999999943  0.7527500000000000 13.4650650000000027   F   F   F
 24.7249999999999979  5.2692500000000004 10.8675650000000026   F   F   F
 28.2687499999999972  0.7527500000000000 16.9301300000000019   T   T   T
 28.2687499999999972  5.2692500000000004 19.5276300000000020   T   T   T
 25.9062499999999964  2.2582500000000003 17.7925000000000040   T   T   T
 28.2687499999999972  2.2582500000000003 19.5276300000000020   T   T   T
 25.9062499999999964  0.7527500000000000 15.1950000000000003   T   T   T
 28.2687499999999972  3.7637499999999999 16.9301300000000019   T   T   T
 25.9062499999999964  3.7637499999999999 15.1950000000000003   T   T   T
 25.9062499999999964  5.2692500000000004 17.7925000000000040   T   T   T
 27.0874999999999986  2.2582500000000003 16.0625650000000029   T   T   T
 27.0874999999999986  3.7637499999999999 18.6600650000000030   T   T   T
 24.7249999999999943  0.7527500000000000 18.6600650000000030   T   T   T
 24.7249999999999979  5.2692500000000004 16.0625650000000029   T   T   T
 28.2687499999999972  6.7747500000000000 11.7351300000000016   F   F   F
 28.2687499999999972 11.2912500000000016 14.3326300000000018   F   F   F
 25.9062499999999964  8.2802500000000006 12.5975000000000037   F   F   F
 28.2687499999999972  8.2802500000000006 14.3326300000000018   F   F   F
 25.9062499999999964  6.7747500000000000 10.0000000000000036   F   F   F
 28.2687499999999972  9.7857500000000002 11.7351300000000052   F   F   F
 25.9062499999999964  9.7857500000000002 10.0000000000000036   F   F   F
 25.9062500000000000 11.2912500000000016 12.5975000000000037   F   F   F
 27.0874999999999986  8.2802500000000006 10.8675650000000026   F   F   F
 27.0874999999999986  9.7857500000000002 13.4650650000000027   F   F   F
 24.7249999999999979  6.7747500000000000 13.4650650000000027   F   F   F
 24.7249999999999979 11.2912500000000016 10.8675650000000026   F   F   F
 28.2687499999999972  6.7747500000000000 16.9301300000000019   T   T   T
 28.2687499999999972 11.2912500000000016 19.5276300000000020   T   T   T
 25.9062499999999964  8.2802500000000006 17.7925000000000040   T   T   T
 28.2687499999999972  8.2802500000000006 19.5276300000000020   T   T   T
 25.9062499999999964  6.7747500000000000 15.1950000000000038   T   T   T
 28.2687499999999972  9.7857500000000002 16.9301300000000055   T   T   T
 25.9062499999999964  9.7857500000000002 15.1950000000000038   T   T   T
 25.9062500000000000 11.2912500000000016 17.7925000000000040   T   T   T
 27.0874999999999986  8.2802500000000006 16.0625650000000029   T   T   T
 27.0874999999999986  9.7857500000000002 18.6600650000000030   T   T   T
 24.7249999999999979  6.7747500000000000 18.6600650000000030   T   T   T
 24.7249999999999979 11.2912500000000016 16.0625650000000029   T   T   T
 28.2687499999999972 12.7967500000000012 11.7351300000000052   F   F   F
 28.2687499999999972 17.3132500000000000 14.3326300000000018   F   F   F
 25.9062500000000000 14.3022500000000008 12.5975000000000037   F   F   F
 28.2687499999999972 14.3022500000000008 14.3326300000000018   F   F   F
 25.9062500000000000 12.7967500000000012 10.0000000000000036   F   F   F
 28.2687499999999972 15.8077500000000004 11.7351300000000052   F   F   F
 25.9062500000000000 15.8077500000000004 10.0000000000000036   F   F   F
 25.9062500000000000 17.3132500000000000 12.5975000000000037   F   F   F
 27.0874999999999986 14.3022500000000008 10.8675650000000026   F   F   F
 27.0874999999999986 15.8077500000000004 13.4650650000000027   F   F   F
 24.7249999999999979 12.7967500000000012 13.4650650000000027   F   F   F
 24.7249999999999979 17.3132500000000000 10.8675650000000026   F   F   F
 28.2687499999999972 12.7967500000000012 16.9301300000000019   T   T   T
 28.2687499999999972 17.3132500000000000 19.5276300000000020   T   T   T
 25.9062500000000000 14.3022500000000008 17.7925000000000040   T   T   T
 28.2687499999999972 14.3022500000000008 19.5276300000000020   T   T   T
 25.9062500000000000 12.7967500000000012 15.1950000000000038   T   T   T
 28.2687499999999972 15.8077500000000004 16.9301300000000055   T   T   T
 25.9062500000000000 15.8077500000000004 15.1950000000000038   T   T   T
 25.9062500000000000 17.3132500000000000 17.7925000000000040   T   T   T
 27.0874999999999986 14.3022500000000008 16.0625650000000029   T   T   T
 27.0874999999999986 15.8077500000000004 18.6600650000000030   T   T   T
 24.7249999999999979 12.7967500000000012 18.6600650000000030   T   T   T
 24.7249999999999979 17.3132500000000000 16.0625650000000029   T   T   T
 32.9937499999999915  0.7527500000000000 11.7351300000000016   F   F   F
 32.9937499999999986  5.2692500000000004 14.3326300000000018   F   F   F
 30.6312499999999943  2.2582500000000003 12.5975000000000037   F   F   F
 32.9937499999999915  2.2582500000000003 14.3326300000000018   F   F   F
 30.6312499999999943  0.7527500000000000 10.0000000000000036   F   F   F
 32.9937499999999915  3.7637499999999999 11.7351300000000052   F   F   F
 30.6312499999999943  3.7637499999999999 10.0000000000000036   F   F   F
 30.6312499999999943  5.2692500000000004 12.5975000000000037   F   F   F
 31.8124999999999964  2.2582500000000003 10.8675650000000026   F   F   F
 31.8124999999999964  3.7637499999999999 13.4650650000000027   F   F   F
 29.4499999999999957  0.7527500000000000 13.4650650000000027   F   F   F
 29.4499999999999957  5.2692500000000004 10.8675650000000026   F   F   F
 32.9937499999999915  0.7527500000000000 16.9301300000000019   T   T   T
 32.9937499999999986  5.2692500000000004 19.5276300000000020   T   T   T
 30.6312499999999943  2.2582500000000003 17.7925000000000040   T   T   T
 32.9937499999999915  2.2582500000000003 19.5276300000000020   T   T   T
 30.6312499999999943  0.7527500000000000 15.1950000000000038   T   T   T
 32.9937499999999915  3.7637499999999999 16.9301300000000055   T   T   T
 30.6312499999999943  3.7637499999999999 15.1950000000000038   T   T   T
 30.6312499999999943  5.2692500000000004 17.7925000000000040   T   T   T
 31.8124999999999964  2.2582500000000003 16.0625650000000029   T   T   T
 31.8124999999999964  3.7637499999999999 18.6600650000000030   T   T   T
 29.4499999999999957  0.7527500000000000 18.6600650000000030   T   T   T
 29.4499999999999957  5.2692500000000004 16.0625650000000029   T   T   T
 32.9937499999999986  6.7747500000000000 11.7351300000000052   F   F   F
 32.9937499999999986 11.2912500000000016 14.3326300000000018   F   F   F
 30.6312499999999979  8.2802500000000006 12.5975000000000037   F   F   F
 32.9937499999999986  8.2802500000000006 14.3326300000000018   F   F   F
 30.6312499999999979  6.7747500000000000 10.0000000000000036   F   F   F
 32.9937499999999986  9.7857500000000002 11.7351300000000052   F   F   F
 30.6312499999999979  9.7857500000000002 10.0000000000000036   F   F   F
 30.6312499999999979 11.2912500000000016 12.5975000000000037   F   F   F
 31.8125000000000000  8.2802500000000006 10.8675650000000026   F   F   F
 31.8125000000000000  9.7857500000000002 13.4650650000000027   F   F   F
 29.4499999999999957  6.7747500000000000 13.4650650000000027   F   F   F
 29.4499999999999957 11.2912500000000016 10.8675650000000026   F   F   F
 32.9937499999999986  6.7747500000000000 16.9301300000000019   T   T   T
 32.9937499999999986 11.2912500000000016 19.5276300000000020   T   T   T
 30.6312499999999979  8.2802500000000006 17.7925000000000040   T   T   T
 32.9937499999999986  8.2802500000000006 19.5276300000000020   T   T   T
 30.6312499999999979  6.7747500000000000 15.1950000000000038   T   T   T
 32.9937499999999986  9.7857500000000002 16.9301300000000055   T   T   T
 30.6312499999999979  9.7857500000000002 15.1950000000000038   T   T   T
 30.6312499999999979 11.2912500000000016 17.7925000000000040   T   T   T
 31.8125000000000000  8.2802500000000006 16.0625650000000029   T   T   T
 31.8125000000000000  9.7857500000000002 18.6600650000000030   T   T   T
 29.4499999999999957  6.7747500000000000 18.6600650000000030   T   T   T
 29.4499999999999957 11.2912500000000016 16.0625650000000029   T   T   T
 32.9937499999999986 12.7967500000000012 11.7351300000000052   F   F   F
 32.9937499999999986 17.3132500000000000 14.3326300000000018   F   F   F
 30.6312499999999979 14.3022500000000008 12.5975000000000037   F   F   F
 32.9937499999999986 14.3022500000000008 14.3326300000000018   F   F   F
 30.6312499999999979 12.7967500000000012 10.0000000000000036   F   F   F
 32.9937499999999986 15.8077500000000004 11.7351300000000052   F   F   F
 30.6312499999999979 15.8077500000000004 10.0000000000000036   F   F   F
 30.6312499999999979 17.3132500000000000 12.5975000000000037   F   F   F
 31.8125000000000000 14.3022500000000008 10.8675650000000026   F   F   F
 31.8125000000000000 15.8077500000000004 13.4650650000000027   F   F   F
 29.4499999999999957 12.7967500000000012 13.4650650000000027   F   F   F
 29.4499999999999957 17.3132500000000000 10.8675650000000026   F   F   F
 32.9937499999999986 12.7967500000000012 16.9301300000000019   T   T   T
 32.9937499999999986 17.3132500000000000 19.5276300000000020   T   T   T
 30.6312499999999979 14.3022500000000008 17.7925000000000040   T   T   T
 32.9937499999999986 14.3022500000000008 19.5276300000000020   T   T   T
 30.6312499999999979 12.7967500000000012 15.1950000000000038   T   T   T
 32.9937499999999986 15.8077500000000004 16.9301300000000055   T   T   T
 30.6312499999999979 15.8077500000000004 15.1950000000000038   T   T   T
 30.6312499999999979 17.3132500000000000 17.7925000000000040   T   T   T
 31.8125000000000000 14.3022500000000008 16.0625650000000029   T   T   T
 31.8125000000000000 15.8077500000000004 18.6600650000000030   T   T   T
 29.4499999999999957 12.7967500000000012 18.6600650000000030   T   T   T
 29.4499999999999957 17.3132500000000000 16.0625650000000029   T   T   T
 37.7187500000000000  0.7527500000000000 11.7351300000000052   F   F   F
 37.7187500000000000  5.2692500000000004 14.3326300000000018   F   F   F
 35.3562499999999957  2.2582500000000003 12.5975000000000037   F   F   F
 37.7187500000000000  2.2582500000000003 14.3326300000000018   F   F   F
 35.3562499999999957  0.7527500000000000 10.0000000000000036   F   F   F
 37.7187500000000000  3.7637499999999999 11.7351300000000052   F   F   F
 35.3562499999999957  3.7637499999999999 10.0000000000000036   F   F   F
 35.3562499999999957  5.2692500000000004 12.5975000000000037   F   F   F
 36.5374999999999943  2.2582500000000003 10.8675650000000026   F   F   F
 36.5374999999999943  3.7637499999999999 13.4650650000000027   F   F   F
 34.1749999999999972  0.7527500000000000 13.4650650000000027   F   F   F
 34.1749999999999972  5.2692500000000004 10.8675650000000026   F   F   F
 37.7187500000000000  0.7527500000000000 16.9301300000000019   T   T   T
 37.7187500000000000  5.2692500000000004 19.5276300000000020   T   T   T
 35.3562499999999957  2.2582500000000003 17.7925000000000040   T   T   T
 37.7187500000000000  2.2582500000000003 19.5276300000000020   T   T   T
 35.3562499999999957  0.7527500000000000 15.1950000000000038   T   T   T
 37.7187500000000000  3.7637499999999999 16.9301300000000055   T   T   T
 35.3562499999999957  3.7637499999999999 15.1950000000000038   T   T   T
 35.3562499999999957  5.2692500000000004 17.7925000000000040   T   T   T
 36.5374999999999943  2.2582500000000003 16.0625650000000029   T   T   T
 36.5374999999999943  3.7637499999999999 18.6600650000000030   T   T   T
 34.1749999999999972  0.7527500000000000 18.6600650000000030   T   T   T
 34.1749999999999972  5.2692500000000004 16.0625650000000029   T   T   T
 37.7187500000000000  6.7747500000000000 11.7351300000000052   F   F   F
 37.7187500000000000 11.2912500000000016 14.3326300000000018   F   F   F
 35.3562499999999957  8.2802500000000006 12.5975000000000037   F   F   F
 37.7187500000000000  8.2802500000000006 14.3326300000000018   F   F   F
 35.3562499999999957  6.7747500000000000 10.0000000000000036   F   F   F
 37.7187500000000000  9.7857500000000002 11.7351300000000052   F   F   F
 35.3562499999999957  9.7857500000000002 10.0000000000000036   F   F   F
 35.3562499999999957 11.2912500000000016 12.5975000000000037   F   F   F
 36.5374999999999943  8.2802500000000006 10.8675650000000026   F   F   F
 36.5374999999999943  9.7857500000000002 13.4650650000000027   F   F   F
 34.1749999999999972  6.7747500000000000 13.4650650000000027   F   F   F
 34.1749999999999972 11.2912500000000016 10.8675650000000026   F   F   F
 37.7187500000000000  6.7747500000000000 16.9301300000000019   T   T   T
 37.7187500000000000 11.2912500000000016 19.5276300000000020   T   T   T
 35.3562499999999957  8.2802500000000006 17.7925000000000040   T   T   T
 37.7187500000000000  8.2802500000000006 19.5276300000000020   T   T   T
 35.3562499999999957  6.7747500000000000 15.1950000000000038   T   T   T
 37.7187500000000000  9.7857500000000002 16.9301300000000055   T   T   T
 35.3562499999999957  9.7857500000000002 15.1950000000000038   T   T   T
 35.3562499999999957 11.2912500000000016 17.7925000000000040   T   T   T
 36.5374999999999943  8.2802500000000006 16.0625650000000029   T   T   T
 36.5374999999999943  9.7857500000000002 18.6600650000000030   T   T   T
 34.1749999999999972  6.7747500000000000 18.6600650000000030   T   T   T
 34.1749999999999972 11.2912500000000016 16.0625650000000029   T   T   T
 37.7187500000000000 12.7967500000000012 11.7351300000000052   F   F   F
 37.7187500000000000 17.3132500000000000 14.3326300000000053   F   F   F
 35.3562499999999957 14.3022500000000008 12.5975000000000037   F   F   F
 37.7187500000000000 14.3022500000000008 14.3326300000000018   F   F   F
 35.3562499999999957 12.7967500000000012 10.0000000000000036   F   F   F
 37.7187500000000000 15.8077500000000004 11.7351300000000052   F   F   F
 35.3562499999999957 15.8077500000000004 10.0000000000000036   F   F   F
 35.3562499999999957 17.3132500000000000 12.5975000000000037   F   F   F
 36.5374999999999943 14.3022500000000008 10.8675650000000026   F   F   F
 36.5374999999999943 15.8077500000000004 13.4650650000000027   F   F   F
 34.1749999999999972 12.7967500000000012 13.4650650000000027   F   F   F
 34.1749999999999972 17.3132500000000000 10.8675650000000026   F   F   F
 37.7187500000000000 12.7967500000000012 16.9301300000000055   T   T   T
 37.7187500000000000 17.3132500000000000 19.5276300000000056   T   T   T
 35.3562499999999957 14.3022500000000008 17.7925000000000040   T   T   T
 37.7187500000000000 14.3022500000000008 19.5276300000000020   T   T   T
 35.3562499999999957 12.7967500000000012 15.1950000000000038   T   T   T
 37.7187500000000000 15.8077500000000004 16.9301300000000055   T   T   T
 35.3562499999999957 15.8077500000000004 15.1950000000000038   T   T   T
 35.3562499999999957 17.3132500000000000 17.7925000000000040   T   T   T
 36.5374999999999943 14.3022500000000008 16.0625650000000029   T   T   T
 36.5374999999999943 15.8077500000000004 18.6600650000000030   T   T   T
 34.1749999999999972 12.7967500000000012 18.6600650000000030   T   T   T
 34.1749999999999972 17.3132500000000000 16.0625650000000029   T   T   T
 42.4437499999999943  0.7527500000000000 11.7351300000000052   F   F   F
 42.4437499999999943  5.2692500000000004 14.3326300000000018   F   F   F
 40.0812499999999972  2.2582500000000003 12.5975000000000037   F   F   F
 42.4437499999999943  2.2582500000000003 14.3326300000000018   F   F   F
 40.0812499999999972  0.7527500000000000 10.0000000000000036   F   F   F
 42.4437499999999943  3.7637499999999999 11.7351300000000052   F   F   F
 40.0812499999999972  3.7637499999999999 10.0000000000000036   F   F   F
 40.0812499999999972  5.2692500000000004 12.5975000000000037   F   F   F
 41.2624999999999957  2.2582500000000003 10.8675650000000026   F   F   F
 41.2624999999999957  3.7637499999999999 13.4650650000000027   F   F   F
 38.8999999999999915  0.7527500000000000 13.4650650000000027   F   F   F
 38.8999999999999915  5.2692500000000004 10.8675650000000026   F   F   F
 42.4437499999999943  0.7527500000000000 16.9301300000000019   T   T   T
 42.4437499999999943  5.2692500000000004 19.5276300000000020   T   T   T
 40.0812499999999972  2.2582500000000003 17.7925000000000040   T   T   T
 42.4437499999999943  2.2582500000000003 19.5276300000000020   T   T   T
 40.0812499999999972  0.7527500000000000 15.1950000000000038   T   T   T
 42.4437499999999943  3.7637499999999999 16.9301300000000055   T   T   T
 40.0812499999999972  3.7637499999999999 15.1950000000000038   T   T   T
 40.0812499999999972  5.2692500000000004 17.7925000000000040   T   T   T
 41.2624999999999957  2.2582500000000003 16.0625650000000029   T   T   T
 41.2624999999999957  3.7637499999999999 18.6600650000000030   T   T   T
 38.8999999999999915  0.7527500000000000 18.6600650000000030   T   T   T
 38.8999999999999915  5.2692500000000004 16.0625650000000029   T   T   T
 42.4437499999999943  6.7747500000000000 11.7351300000000052   F   F   F
 42.4437499999999943 11.2912500000000016 14.3326300000000053   F   F   F
 40.0812499999999972  8.2802500000000006 12.5975000000000037   F   F   F
 42.4437499999999943  8.2802500000000006 14.3326300000000018   F   F   F
 40.0812499999999972  6.7747500000000000 10.0000000000000036   F   F   F
 42.4437499999999943  9.7857500000000002 11.7351300000000052   F   F   F
 40.0812499999999972  9.7857500000000002 10.0000000000000036   F   F   F
 40.0812499999999972 11.2912500000000016 12.5975000000000037   F   F   F
 41.2624999999999957  8.2802500000000006 10.8675650000000026   F   F   F
 41.2624999999999957  9.7857500000000002 13.4650650000000027   F   F   F
 38.8999999999999915  6.7747500000000000 13.4650650000000027   F   F   F
 38.8999999999999915 11.2912500000000016 10.8675650000000026   F   F   F
 42.4437499999999943  6.7747500000000000 16.9301300000000055   T   T   T
 42.4437499999999943 11.2912500000000016 19.5276300000000056   T   T   T
 40.0812499999999972  8.2802500000000006 17.7925000000000040   T   T   T
 42.4437499999999943  8.2802500000000006 19.5276300000000020   T   T   T
 40.0812499999999972  6.7747500000000000 15.1950000000000038   T   T   T
 42.4437499999999943  9.7857500000000002 16.9301300000000055   T   T   T
 40.0812499999999972  9.7857500000000002 15.1950000000000038   T   T   T
 40.0812499999999972 11.2912500000000016 17.7925000000000040   T   T   T
 41.2624999999999957  8.2802500000000006 16.0625650000000029   T   T   T
 41.2624999999999957  9.7857500000000002 18.6600650000000030   T   T   T
 38.8999999999999915  6.7747500000000000 18.6600650000000030   T   T   T
 38.8999999999999915 11.2912500000000016 16.0625650000000029   T   T   T
 42.4437499999999943 12.7967500000000012 11.7351300000000052   F   F   F
 42.4437499999999943 17.3132500000000000 14.3326300000000053   F   F   F
 40.0812499999999972 14.3022500000000008 12.5975000000000037   F   F   F
 42.4437499999999943 14.3022500000000008 14.3326300000000018   F   F   F
 40.0812499999999972 12.7967500000000012 10.0000000000000036   F   F   F
 42.4437499999999943 15.8077500000000004 11.7351300000000052   F   F   F
 40.0812499999999972 15.8077500000000004 10.0000000000000036   F   F   F
 40.0812499999999972 17.3132500000000000 12.5975000000000037   F   F   F
 41.2625000000000028 14.3022500000000008 10.8675650000000061   F   F   F
 41.2625000000000028 15.8077500000000004 13.4650650000000027   F   F   F
 38.8999999999999986 12.7967500000000012 13.4650650000000027   F   F   F
 38.8999999999999986 17.3132500000000000 10.8675650000000061   F   F   F
 42.4437499999999943 12.7967500000000012 16.9301300000000055   T   T   T
 42.4437499999999943 17.3132500000000000 19.5276300000000056   T   T   T
 40.0812499999999972 14.3022500000000008 17.7925000000000040   T   T   T
 42.4437499999999943 14.3022500000000008 19.5276300000000020   T   T   T
 40.0812499999999972 12.7967500000000012 15.1950000000000038   T   T   T
 42.4437499999999943 15.8077500000000004 16.9301300000000055   T   T   T
 40.0812499999999972 15.8077500000000004 15.1950000000000038   T   T   T
 40.0812499999999972 17.3132500000000000 17.7925000000000040   T   T   T
 41.2625000000000028 14.3022500000000008 16.0625650000000029   T   T   T
 41.2625000000000028 15.8077500000000004 18.6600650000000030   T   T   T
 38.8999999999999986 12.7967500000000012 18.6600650000000030   T   T   T
 38.8999999999999986 17.3132500000000000 16.0625650000000029   T   T   T
 47.1687499999999957  0.7527500000000000 11.7351300000000052   F   F   F
 47.1687499999999957  5.2692500000000004 14.3326300000000053   F   F   F
 44.8062499999999915  2.2582500000000003 12.5975000000000037   F   F   F
 47.1687499999999957  2.2582500000000003 14.3326300000000018   F   F   F
 44.8062499999999915  0.7527500000000000 10.0000000000000036   F   F   F
 47.1687499999999957  3.7637499999999999 11.7351300000000052   F   F   F
 44.8062499999999986  3.7637499999999999 10.0000000000000036   F   F   F
 44.8062499999999986  5.2692500000000004 12.5975000000000037   F   F   F
 45.9874999999999972  2.2582500000000003 10.8675650000000026   F   F   F
 45.9874999999999972  3.7637499999999999 13.4650650000000027   F   F   F
 43.6250000000000000  0.7527500000000000 13.4650650000000027   F   F   F
 43.6250000000000000  5.2692500000000004 10.8675650000000026   F   F   F
 47.1687499999999957  0.7527500000000000 16.9301300000000055   T   T   T
 47.1687499999999957  5.2692500000000004 19.5276300000000056   T   T   T
 44.8062499999999915  2.2582500000000003 17.7925000000000040   T   T   T
 47.1687499999999957  2.2582500000000003 19.5276300000000020   T   T   T
 44.8062499999999915  0.7527500000000000 15.1950000000000038   T   T   T
 47.1687499999999957  3.7637499999999999 16.9301300000000055   T   T   T
 44.8062499999999986  3.7637499999999999 15.1950000000000038   T   T   T
 44.8062499999999986  5.2692500000000004 17.7925000000000040   T   T   T
 45.9874999999999972  2.2582500000000003 16.0625650000000029   T   T   T
 45.9874999999999972  3.7637499999999999 18.6600650000000030   T   T   T
 43.6250000000000000  0.7527500000000000 18.6600650000000030   T   T   T
 43.6250000000000000  5.2692500000000004 16.0625650000000029   T   T   T
 47.1687499999999957  6.7747500000000000 11.7351300000000052   F   F   F
 47.1687499999999957 11.2912500000000016 14.3326300000000053   F   F   F
 44.8062499999999915  8.2802500000000006 12.5975000000000037   F   F   F
 47.1687499999999957  8.2802500000000006 14.3326300000000018   F   F   F
 44.8062499999999915  6.7747500000000000 10.0000000000000036   F   F   F
 47.1687499999999957  9.7857500000000002 11.7351300000000052   F   F   F
 44.8062499999999986  9.7857500000000002 10.0000000000000036   F   F   F
 44.8062499999999986 11.2912500000000016 12.5975000000000037   F   F   F
 45.9874999999999972  8.2802500000000006 10.8675650000000026   F   F   F
 45.9874999999999972  9.7857500000000002 13.4650650000000027   F   F   F
 43.6250000000000000  6.7747500000000000 13.4650650000000027   F   F   F
 43.6250000000000000 11.2912500000000016 10.8675650000000026   F   F   F
 47.1687499999999957  6.7747500000000000 16.9301300000000055   T   T   T
 47.1687499999999957 11.2912500000000016 19.5276300000000056   T   T   T
 44.8062499999999915  8.2802500000000006 17.7925000000000040   T   T   T
 47.1687499999999957  8.2802500000000006 19.5276300000000020   T   T   T
 44.8062499999999915  6.7747500000000000 15.1950000000000038   T   T   T
 47.1687499999999957  9.7857500000000002 16.9301300000000055   T   T   T
 44.8062499999999986  9.7857500000000002 15.1950000000000038   T   T   T
 44.8062499999999986 11.2912500000000016 17.7925000000000040   T   T   T
 45.9874999999999972  8.2802500000000006 16.0625650000000029   T   T   T
 45.9874999999999972  9.7857500000000002 18.6600650000000030   T   T   T
 43.6250000000000000  6.7747500000000000 18.6600650000000030   T   T   T
 43.6250000000000000 11.2912500000000016 16.0625650000000029   T   T   T
 47.1687500000000028 12.7967500000000012 11.7351300000000052   F   F   F
 47.1687500000000028 17.3132500000000000 14.3326300000000053   F   F   F
 44.8062500000000057 14.3022500000000008 12.5975000000000037   F   F   F
 47.1687500000000028 14.3022500000000008 14.3326300000000018   F   F   F
 44.8062499999999986 12.7967500000000012 10.0000000000000036   F   F   F
 47.1687500000000028 15.8077500000000004 11.7351300000000052   F   F   F
 44.8062500000000057 15.8077500000000004 10.0000000000000036   F   F   F
 44.8062500000000057 17.3132500000000000 12.5975000000000037   F   F   F
 45.9874999999999972 14.3022500000000008 10.8675650000000061   F   F   F
 45.9874999999999972 15.8077500000000004 13.4650650000000063   F   F   F
 43.6250000000000000 12.7967500000000012 13.4650650000000027   F   F   F
 43.6250000000000000 17.3132500000000000 10.8675650000000061   F   F   F
 47.1687500000000028 12.7967500000000012 16.9301300000000055   T   T   T
 47.1687500000000028 17.3132500000000000 19.5276300000000056   T   T   T
 44.8062500000000057 14.3022500000000008 17.7925000000000040   T   T   T
 47.1687500000000028 14.3022500000000008 19.5276300000000020   T   T   T
 44.8062499999999986 12.7967500000000012 15.1950000000000038   T   T   T
 47.1687500000000028 15.8077500000000004 16.9301300000000055   T   T   T
 44.8062500000000057 15.8077500000000004 15.1950000000000038   T   T   T
 44.8062500000000057 17.3132500000000000 17.7925000000000040   T   T   T
 45.9874999999999972 14.3022500000000008 16.0625650000000029   T   T   T
 45.9874999999999972 15.8077500000000004 18.6600650000000030   T   T   T
 43.6250000000000000 12.7967500000000012 18.6600650000000030   T   T   T
 43.6250000000000000 17.3132500000000000 16.0625650000000029   T   T   T
 51.8937499999999972  0.7527500000000000 11.7351300000000052   F   F   F
 51.8937499999999972  5.2692500000000004 14.3326300000000053   F   F   F
 49.5312500000000000  2.2582500000000003 12.5975000000000037   F   F   F
 51.8937499999999972  2.2582500000000003 14.3326300000000018   F   F   F
 49.5312499999999929  0.7527500000000000 10.0000000000000036   F   F   F
 51.8937499999999972  3.7637499999999999 11.7351300000000052   F   F   F
 49.5312500000000000  3.7637499999999999 10.0000000000000036   F   F   F
 49.5312500000000000  5.2692500000000004 12.5975000000000037   F   F   F
 50.7124999999999915  2.2582500000000003 10.8675650000000026   F   F   F
 50.7124999999999915  3.7637499999999999 13.4650650000000027   F   F   F
 48.3499999999999943  0.7527500000000000 13.4650650000000027   F   F   F
 48.3499999999999943  5.2692500000000004 10.8675650000000026   F   F   F
 51.8937499999999972  0.7527500000000000 16.9301300000000055   T   T   T
 51.8937499999999972  5.2692500000000004 19.5276300000000056   T   T   T
 49.5312500000000000  2.2582500000000003 17.7925000000000040   T   T   T
 51.8937499999999972  2.2582500000000003 19.5276300000000020   T   T   T
 49.5312499999999929  0.7527500000000000 15.1950000000000038   T   T   T
 51.8937499999999972  3.7637499999999999 16.9301300000000055   T   T   T
 49.5312500000000000  3.7637499999999999 15.1950000000000038   T   T   T
 49.5312500000000000  5.2692500000000004 17.7925000000000040   T   T   T
 50.7124999999999915  2.2582500000000003 16.0625650000000029   T   T   T
 50.7124999999999915  3.7637499999999999 18.6600650000000030   T   T   T
 48.3499999999999943  0.7527500000000000 18.6600650000000030   T   T   T
 48.3499999999999943  5.2692500000000004 16.0625650000000029   T   T   T
 51.8937499999999972  6.7747500000000000 11.7351300000000052   F   F   F
 51.8937499999999972 11.2912500000000016 14.3326300000000053   F   F   F
 49.5312500000000000  8.2802500000000006 12.5975000000000037   F   F   F
 51.8937499999999972  8.2802500000000006 14.3326300000000018   F   F   F
 49.5312499999999929  6.7747500000000000 10.0000000000000036   F   F   F
 51.8937499999999972  9.7857500000000002 11.7351300000000052   F   F   F
 49.5312500000000000  9.7857500000000002 10.0000000000000036   F   F   F
 49.5312500000000000 11.2912500000000016 12.5975000000000037   F   F   F
 50.7124999999999915  8.2802500000000006 10.8675650000000061   F   F   F
 50.7124999999999915  9.7857500000000002 13.4650650000000063   F   F   F
 48.3499999999999943  6.7747500000000000 13.4650650000000027   F   F   F
 48.3499999999999943 11.2912500000000016 10.8675650000000061   F   F   F
 51.8937499999999972  6.7747500000000000 16.9301300000000055   T   T   T
 51.8937499999999972 11.2912500000000016 19.5276300000000056   T   T   T
 49.5312500000000000  8.2802500000000006 17.7925000000000040   T   T   T
 51.8937499999999972  8.2802500000000006 19.5276300000000020   T   T   T
 49.5312499999999929  6.7747500000000000 15.1950000000000038   T   T   T
 51.8937499999999972  9.7857500000000002 16.9301300000000055   T   T   T
 49.5312500000000000  9.7857500000000002 15.1950000000000038   T   T   T
 49.5312500000000000 11.2912500000000016 17.7925000000000040   T   T   T
 50.7124999999999915  8.2802500000000006 16.0625650000000029   T   T   T
 50.7124999999999915  9.7857500000000002 18.6600650000000030   T   T   T
 48.3499999999999943  6.7747500000000000 18.6600650000000030   T   T   T
 48.3499999999999943 11.2912500000000016 16.0625650000000029   T   T   T
 51.8937499999999972 12.7967500000000012 11.7351300000000052   F   F   F
 51.8937499999999972 17.3132500000000000 14.3326300000000053   F   F   F
 49.5312500000000000 14.3022500000000008 12.5975000000000037   F   F   F
 51.8937499999999972 14.3022500000000008 14.3326300000000053   F   F   F
 49.5312500000000000 12.7967500000000012 10.0000000000000036   F   F   F
 51.8937499999999972 15.8077500000000004 11.7351300000000052   F   F   F
 49.5312500000000000 15.8077500000000004 10.0000000000000036   F   F   F
 49.5312500000000000 17.3132500000000000 12.5975000000000037   F   F   F
 50.7124999999999986 14.3022500000000008 10.8675650000000061   F   F   F
 50.7124999999999986 15.8077500000000004 13.4650650000000063   F   F   F
 48.3499999999999943 12.7967500000000012 13.4650650000000063   F   F   F
 48.3499999999999943 17.3132500000000000 10.8675650000000061   F   F   F
 51.8937499999999972 12.7967500000000012 16.9301300000000055   T   T   T
 51.8937499999999972 17.3132500000000000 19.5276300000000091   T   T   T
 49.5312500000000000 14.3022500000000008 17.7925000000000040   T   T   T
 51.8937499999999972 14.3022500000000008 19.5276300000000056   T   T   T
 49.5312500000000000 12.7967500000000012 15.1950000000000038   T   T   T
 51.8937499999999972 15.8077500000000004 16.9301300000000055   T   T   T
 49.5312500000000000 15.8077500000000004 15.1950000000000038   T   T   T
 49.5312500000000000 17.3132500000000000 17.7925000000000040   T   T   T
 50.7124999999999986 14.3022500000000008 16.0625650000000064   T   T   T
 50.7124999999999986 15.8077500000000004 18.6600650000000066   T   T   T
 48.3499999999999943 12.7967500000000012 18.6600650000000030   T   T   T
 48.3499999999999943 17.3132500000000000 16.0625650000000064   T   T   T
 56.6187499999999915  0.7527500000000000 11.7351300000000052   F   F   F
 56.6187499999999915  5.2692500000000004 14.3326300000000053   F   F   F
 54.2562499999999943  2.2582500000000003 12.5975000000000037   F   F   F
 56.6187499999999915  2.2582500000000003 14.3326300000000018   F   F   F
 54.2562499999999943  0.7527500000000000 10.0000000000000036   F   F   F
 56.6187499999999915  3.7637499999999999 11.7351300000000052   F   F   F
 54.2562499999999943  3.7637499999999999 10.0000000000000036   F   F   F
 54.2562499999999943  5.2692500000000004 12.5975000000000037   F   F   F
 55.4374999999999858  2.2582500000000003 10.8675650000000061   F   F   F
 55.4374999999999858  3.7637499999999999 13.4650650000000063   F   F   F
 53.0749999999999886  0.7527500000000000 13.4650650000000027   F   F   F
 53.0749999999999886  5.2692500000000004 10.8675650000000061   F   F   F
 56.6187499999999915  0.7527500000000000 16.9301300000000055   T   T   T
 56.6187499999999915  5.2692500000000004 19.5276300000000056   T   T   T
 54.2562499999999943  2.2582500000000003 17.7925000000000040   T   T   T
 56.6187499999999915  2.2582500000000003 19.5276300000000020   T   T   T
 54.2562499999999943  0.7527500000000000 15.1950000000000038   T   T   T
 56.6187499999999915  3.7637499999999999 16.9301300000000055   T   T   T
 54.2562499999999943  3.7637499999999999 15.1950000000000038   T   T   T
 54.2562499999999943  5.2692500000000004 17.7925000000000040   T   T   T
 55.4374999999999858  2.2582500000000003 16.0625650000000029   T   T   T
 55.4374999999999858  3.7637499999999999 18.6600650000000030   T   T   T
 53.0749999999999886  0.7527500000000000 18.6600650000000030   T   T   T
 53.0749999999999886  5.2692500000000004 16.0625650000000029   T   T   T
 56.6187499999999915  6.7747500000000000 11.7351300000000052   F   F   F
 56.6187499999999915 11.2912500000000016 14.3326300000000053   F   F   F
 54.2562499999999943  8.2802500000000006 12.5975000000000037   F   F   F
 56.6187499999999915  8.2802500000000006 14.3326300000000053   F   F   F
 54.2562499999999943  6.7747500000000000 10.0000000000000036   F   F   F
 56.6187499999999915  9.7857500000000002 11.7351300000000052   F   F   F
 54.2562499999999943  9.7857500000000002 10.0000000000000036   F   F   F
 54.2562499999999943 11.2912500000000016 12.5975000000000037   F   F   F
 55.4374999999999858  8.2802500000000006 10.8675650000000061   F   F   F
 55.4374999999999858  9.7857500000000002 13.4650650000000063   F   F   F
 53.0749999999999886  6.7747500000000000 13.4650650000000027   F   F   F
 53.0749999999999886 11.2912500000000016 10.8675650000000061   F   F   F
 56.6187499999999915  6.7747500000000000 16.9301300000000055   T   T   T
 56.6187499999999915 11.2912500000000016 19.5276300000000091   T   T   T
 54.2562499999999943  8.2802500000000006 17.7925000000000040   T   T   T
 56.6187499999999915  8.2802500000000006 19.5276300000000056   T   T   T
 54.2562499999999943  6.7747500000000000 15.1950000000000038   T   T   T
 56.6187499999999915  9.7857500000000002 16.9301300000000055   T   T   T
 54.2562499999999943  9.7857500000000002 15.1950000000000038   T   T   T
 54.2562499999999943 11.2912500000000016 17.7925000000000040   T   T   T
 55.4374999999999858  8.2802500000000006 16.0625650000000064   T   T   T
 55.4374999999999858  9.7857500000000002 18.6600650000000066   T   T   T
 53.0749999999999886  6.7747500000000000 18.6600650000000030   T   T   T
 53.0749999999999886 11.2912500000000016 16.0625650000000064   T   T   T
 56.6187499999999915 12.7967500000000012 11.7351300000000052   F   F   F
 56.6187499999999915 17.3132500000000000 14.3326300000000053   F   F   F
 54.2562499999999943 14.3022500000000008 12.5975000000000037   F   F   F
 56.6187499999999915 14.3022500000000008 14.3326300000000053   F   F   F
 54.2562499999999943 12.7967500000000012 10.0000000000000036   F   F   F
 56.6187499999999915 15.8077500000000004 11.7351300000000052   F   F   F
 54.2562499999999943 15.8077500000000004 10.0000000000000036   F   F   F
 54.2562499999999943 17.3132500000000000 12.5975000000000037   F   F   F
 55.4374999999999858 14.3022500000000008 10.8675650000000061   F   F   F
 55.4374999999999858 15.8077500000000004 13.4650650000000063   F   F   F
 53.0749999999999886 12.7967500000000012 13.4650650000000063   F   F   F
 53.0749999999999886 17.3132500000000000 10.8675650000000061   F   F   F
 56.6187499999999915 12.7967500000000012 16.9301300000000055   T   T   T
 56.6187499999999915 17.3132500000000000 19.5276300000000091   T   T   T
 54.2562499999999943 14.3022500000000008 17.7925000000000040   T   T   T
 56.6187499999999915 14.3022500000000008 19.5276300000000056   T   T   T
 54.2562499999999943 12.7967500000000012 15.1950000000000038   T   T   T
 56.6187499999999915 15.8077500000000004 16.9301300000000055   T   T   T
 54.2562499999999943 15.8077500000000004 15.1950000000000038   T   T   T
 54.2562499999999943 17.3132500000000000 17.7925000000000040   T   T   T
 55.4374999999999858 14.3022500000000008 16.0625650000000064   T   T   T
 55.4374999999999858 15.8077500000000004 18.6600650000000066   T   T   T
 53.0749999999999886 12.7967500000000012 18.6600650000000030   T   T   T
 53.0749999999999886 17.3132500000000000 16.0625650000000064   T   T   T
 61.3437500000000000  0.7527500000000000 11.7351300000000052   F   F   F
 61.3437500000000000  5.2692500000000004 14.3326300000000053   F   F   F
 58.9812499999999886  2.2582500000000003 12.5975000000000037   F   F   F
 61.3437500000000000  2.2582500000000003 14.3326300000000053   F   F   F
 58.9812499999999886  0.7527500000000000 10.0000000000000036   F   F   F
 61.3437500000000000  3.7637499999999999 11.7351300000000052   F   F   F
 58.9812499999999886  3.7637499999999999 10.0000000000000036   F   F   F
 58.9812499999999886  5.2692500000000004 12.5975000000000037   F   F   F
 60.1624999999999943  2.2582500000000003 10.8675650000000061   F   F   F
 60.1624999999999943  3.7637499999999999 13.4650650000000063   F   F   F
 57.7999999999999972  0.7527500000000000 13.4650650000000027   F   F   F
 57.7999999999999972  5.2692500000000004 10.8675650000000061   F   F   F
 61.3437500000000000  0.7527500000000000 16.9301300000000055   T   T   T
 61.3437500000000000  5.2692500000000004 19.5276300000000091   T   T   T
 58.9812499999999886  2.2582500000000003 17.7925000000000040   T   T   T
 61.3437500000000000  2.2582500000000003 19.5276300000000056   T   T   T
 58.9812499999999886  0.7527500000000000 15.1950000000000038   T   T   T
 61.3437500000000000  3.7637499999999999 16.9301300000000055   T   T   T
 58.9812499999999886  3.7637499999999999 15.1950000000000038   T   T   T
 58.9812499999999886  5.2692500000000004 17.7925000000000040   T   T   T
 60.1624999999999943  2.2582500000000003 16.0625650000000064   T   T   T
 60.1624999999999943  3.7637499999999999 18.6600650000000066   T   T   T
 57.7999999999999972  0.7527500000000000 18.6600650000000030   T   T   T
 57.7999999999999972  5.2692500000000004 16.0625650000000064   T   T   T
 61.3437500000000000  6.7747500000000000 11.7351300000000052   F   F   F
 61.3437500000000000 11.2912500000000016 14.3326300000000053   F   F   F
 58.9812499999999886  8.2802500000000006 12.5975000000000037   F   F   F
 61.3437500000000000  8.2802500000000006 14.3326300000000053   F   F   F
 58.9812499999999886  6.7747500000000000 10.0000000000000036   F   F   F
 61.3437500000000000  9.7857500000000002 11.7351300000000052   F   F   F
 58.9812499999999886  9.7857500000000002 10.0000000000000036   F   F   F
 58.9812499999999886 11.2912500000000016 12.5975000000000037   F   F   F
 60.1624999999999943  8.2802500000000006 10.8675650000000061   F   F   F
 60.1624999999999943  9.7857500000000002 13.4650650000000063   F   F   F
 57.7999999999999972  6.7747500000000000 13.4650650000000063   F   F   F
 57.7999999999999972 11.2912500000000016 10.8675650000000061   F   F   F
 61.3437500000000000  6.7747500000000000 16.9301300000000055   T   T   T
 61.3437500000000000 11.2912500000000016 19.5276300000000091   T   T   T
 58.9812499999999886  8.2802500000000006 17.7925000000000040   T   T   T
 61.3437500000000000  8.2802500000000006 19.5276300000000056   T   T   T
 58.9812499999999886  6.7747500000000000 15.1950000000000038   T   T   T
 61.3437500000000000  9.7857500000000002 16.9301300000000055   T   T   T
 58.9812499999999886  9.7857500000000002 15.1950000000000038   T   T   T
 58.9812499999999886 11.2912500000000016 17.7925000000000040   T   T   T
 60.1624999999999943  8.2802500000000006 16.0625650000000064   T   T   T
 60.1624999999999943  9.7857500000000002 18.6600650000000066   T   T   T
 57.7999999999999972  6.7747500000000000 18.6600650000000030   T   T   T
 57.7999999999999972 11.2912500000000016 16.0625650000000064   T   T   T
 61.3437500000000000 12.7967500000000012 11.7351300000000052   F   F   F
 61.3437500000000000 17.3132500000000000 14.3326300000000053   F   F   F
 58.9812499999999886 14.3022500000000008 12.5975000000000037   F   F   F
 61.3437500000000000 14.3022500000000008 14.3326300000000053   F   F   F
 58.9812499999999886 12.7967500000000012 10.0000000000000036   F   F   F
 61.3437500000000000 15.8077500000000004 11.7351300000000052   F   F   F
 58.9812499999999886 15.8077500000000004 10.0000000000000071   F   F   F
 58.9812499999999886 17.3132500000000000 12.5975000000000037   F   F   F
 60.1624999999999943 14.3022500000000008 10.8675650000000061   F   F   F
 60.1624999999999943 15.8077500000000004 13.4650650000000063   F   F   F
 57.7999999999999972 12.7967500000000012 13.4650650000000063   F   F   F
 57.7999999999999972 17.3132500000000000 10.8675650000000061   F   F   F
 61.3437500000000000 12.7967500000000012 16.9301300000000055   T   T   T
 61.3437500000000000 17.3132500000000000 19.5276300000000091   T   T   T
 58.9812499999999886 14.3022500000000008 17.7925000000000040   T   T   T
 61.3437500000000000 14.3022500000000008 19.5276300000000056   T   T   T
 58.9812499999999886 12.7967500000000012 15.1950000000000038   T   T   T
 61.3437500000000000 15.8077500000000004 16.9301300000000055   T   T   T
 58.9812499999999886 15.8077500000000004 15.1950000000000038   T   T   T
 58.9812499999999886 17.3132500000000000 17.7925000000000040   T   T   T
 60.1624999999999943 14.3022500000000008 16.0625650000000064   T   T   T
 60.1624999999999943 15.8077500000000004 18.6600650000000066   T   T   T
 57.7999999999999972 12.7967500000000012 18.6600650000000030   T   T   T
 57.7999999999999972 17.3132500000000000 16.0625650000000064   T   T   T
 66.0687499999999943  0.7527500000000000 11.7351300000000052   F   F   F
 66.0687499999999943  5.2692500000000004 14.3326300000000053   F   F   F
 63.7062499999999972  2.2582500000000003 12.5975000000000037   F   F   F
 66.0687499999999943  2.2582500000000003 14.3326300000000053   F   F   F
 63.7062499999999972  0.7527500000000000 10.0000000000000036   F   F   F
 66.0687499999999943  3.7637499999999999 11.7351300000000052   F   F   F
 63.7062499999999972  3.7637499999999999 10.0000000000000036   F   F   F
 63.7062499999999972  5.2692500000000004 12.5975000000000037   F   F   F
 62.5249999999999915  0.7527500000000000 13.4650650000000063   F   F   F
 62.5249999999999915  5.2692500000000004 10.8675650000000061   F   F   F
 66.0687499999999943  0.7527500000000000 16.9301300000000055   T   T   T
 66.0687499999999943  5.2692500000000004 19.5276300000000091   T   T   T
 63.7062499999999972  2.2582500000000003 17.7925000000000040   T   T   T
 66.0687499999999943  2.2582500000000003 19.5276300000000056   T   T   T
 63.7062499999999972  0.7527500000000000 15.1950000000000038   T   T   T
 66.0687499999999943  3.7637499999999999 16.9301300000000055   T   T   T
 63.7062499999999972  3.7637499999999999 15.1950000000000038   T   T   T
 63.7062499999999972  5.2692500000000004 17.7925000000000040   T   T   T
 62.5249999999999915  0.7527500000000000 18.6600650000000030   T   T   T
 62.5249999999999915  5.2692500000000004 16.0625650000000064   T   T   T
 66.0687499999999943  6.7747500000000000 11.7351300000000052   F   F   F
 66.0687499999999943 11.2912500000000016 14.3326300000000053   F   F   F
 63.7062499999999972  8.2802500000000006 12.5975000000000037   F   F   F
 66.0687499999999943  8.2802500000000006 14.3326300000000053   F   F   F
 63.7062499999999972  6.7747500000000000 10.0000000000000036   F   F   F
 66.0687499999999943  9.7857500000000002 11.7351300000000052   F   F   F
 63.7062499999999972  9.7857500000000002 10.0000000000000036   F   F   F
 63.7062499999999972 11.2912500000000016 12.5975000000000037   F   F   F
 62.5249999999999915  6.7747500000000000 13.4650650000000063   F   F   F
 62.5249999999999915 11.2912500000000016 10.8675650000000061   F   F   F
 66.0687499999999943  6.7747500000000000 16.9301300000000055   T   T   T
 66.0687499999999943 11.2912500000000016 19.5276300000000091   T   T   T
 63.7062499999999972  8.2802500000000006 17.7925000000000040   T   T   T
 66.0687499999999943  8.2802500000000006 19.5276300000000056   T   T   T
 63.7062499999999972  6.7747500000000000 15.1950000000000038   T   T   T
 66.0687499999999943  9.7857500000000002 16.9301300000000055   T   T   T
 63.7062499999999972  9.7857500000000002 15.1950000000000038   T   T   T
 63.7062499999999972 11.2912500000000016 17.7925000000000040   T   T   T
 62.5249999999999915  6.7747500000000000 18.6600650000000030   T   T   T
 62.5249999999999915 11.2912500000000016 16.0625650000000064   T   T   T
 66.0687499999999943 12.7967500000000012 11.7351300000000052   F   F   F
 66.0687499999999943 17.3132500000000000 14.3326300000000053   F   F   F
 63.7062499999999972 14.3022500000000008 12.5975000000000037   F   F   F
 66.0687499999999943 14.3022500000000008 14.3326300000000053   F   F   F
 63.7062499999999972 12.7967500000000012 10.0000000000000071   F   F   F
 66.0687499999999943 15.8077500000000004 11.7351300000000052   F   F   F
 63.7062499999999972 15.8077500000000004 10.0000000000000071   F   F   F
 63.7062499999999972 17.3132500000000000 12.5975000000000072   F   F   F
 62.5249999999999915 12.7967500000000012 13.4650650000000063   F   F   F
 62.5249999999999915 17.3132500000000000 10.8675650000000061   F   F   F
 66.0687499999999943 12.7967500000000012 16.9301300000000055   T   T   T
 66.0687499999999943 17.3132500000000000 19.5276300000000091   T   T   T
 63.7062499999999972 14.3022500000000008 17.7925000000000040   T   T   T
 66.0687499999999943 14.3022500000000008 19.5276300000000091   T   T   T
 63.7062499999999972 12.7967500000000012 15.1950000000000074   T   T   T
 66.0687499999999943 15.8077500000000004 16.9301300000000055   T   T   T
 63.7062499999999972 15.8077500000000004 15.1950000000000074   T   T   T
 63.7062499999999972 17.3132500000000000 17.7925000000000040   T   T   T
 62.5249999999999915 12.7967500000000012 18.6600650000000066   T   T   T
 62.5249999999999915 17.3132500000000000 16.0625650000000064   T   T   T
