S  Mo S  Mo S  Mo S  Mo S  Mo S  Mo S  Mo S  Mo S  Mo S  Mo S  Mo S  Mo S  Mo S  Mo S  Mo S  Mo S 
 1.0000000000000000
    33.3799999999999955    0.0000000000000000    0.0000000000000000
     0.0000000000000000   10.9465611038353039    0.0000000000000000
     0.0000000000000000    0.0000000000000000   19.1900000000000013
 S   Mo  S   Mo  S   Mo  S   Mo  S   Mo  S   Mo  S   Mo  S   Mo  S   Mo  S   Mo  S   Mo  S   Mo  S   Mo  S   Mo  S   Mo  S   Mo  S  
   8   1   2   1   2   1   2   1   2   1   2   1   2   1   2   1   2   1   2   1   2   1   2   1   2   1   2   1   2   1   2   1  10
Selective dynamics
Cartesian
  9.5799999999999983  0.9122134253196086 11.1900000000000013   T   T   T
  9.5799999999999983  0.9122134253196086  7.9999999999999991   F   F   F
  7.9999999999999973  3.6488537012784343 11.1900000000000013   T   T   T
  7.9999999999999973  3.6488537012784343  7.9999999999999991   F   F   F
  9.5799999999999983  6.3854939772372603 11.1900000000000013   T   T   T
  9.5799999999999983  6.3854939772372603  7.9999999999999991   F   F   F
  7.9999999999999973  9.1221342531960872 11.1900000000000013   T   T   T
  7.9999999999999973  9.1221342531960872  7.9999999999999991   F   F   F
 11.1599999999999984  0.0000000000000000  9.5949999999999989   F   F   F
 12.7399999999999984  0.9122134253196086 11.1900000000000013   T   T   T
 12.7399999999999984  0.9122134253196086  7.9999999999999991   F   F   F
 12.7399999999999984  2.7366402759588255  9.5949999999999989   F   F   F
 11.1599999999999984  3.6488537012784343 11.1900000000000013   T   T   T
 11.1599999999999984  3.6488537012784343  7.9999999999999991   F   F   F
 11.1599999999999984  5.4732805519176519  9.5949999999999989   F   F   F
 12.7399999999999984  6.3854939772372603 11.1900000000000013   T   T   T
 12.7399999999999984  6.3854939772372603  7.9999999999999991   F   F   F
 12.7399999999999984  8.2099208278764770  9.5949999999999989   F   F   F
 11.1599999999999984  9.1221342531960872 11.1900000000000013   T   T   T
 11.1599999999999984  9.1221342531960872  7.9999999999999991   F   F   F
 14.3199999999999985  0.0000000000000000  9.5949999999999989   F   F   F
 15.8999999999999986  0.9122134253196086 11.1900000000000013   T   T   T
 15.8999999999999986  0.9122134253196086  7.9999999999999991   F   F   F
 15.8999999999999986  2.7366402759588255  9.5949999999999989   F   F   F
 14.3199999999999967  3.6488537012784343 11.1900000000000013   T   T   T
 14.3199999999999967  3.6488537012784343  7.9999999999999991   F   F   F
 14.3199999999999985  5.4732805519176519  9.5949999999999989   F   F   F
 15.8999999999999986  6.3854939772372603 11.1900000000000013   T   T   T
 15.8999999999999986  6.3854939772372603  7.9999999999999991   F   F   F
 15.8999999999999986  8.2099208278764770  9.5949999999999989   F   F   F
 14.3199999999999967  9.1221342531960872 11.1900000000000013   T   T   T
 14.3199999999999967  9.1221342531960872  7.9999999999999991   F   F   F
 17.4799999999999969  0.0000000000000000  9.5949999999999989   F   F   F
 19.0599999999999987  0.9122134253196086 11.1900000000000013   T   T   T
 19.0599999999999987  0.9122134253196086  7.9999999999999991   F   F   F
 19.0599999999999987  2.7366402759588255  9.5949999999999989   F   F   F
 17.4799999999999969  3.6488537012784343 11.1900000000000013   T   T   T
 17.4799999999999969  3.6488537012784343  7.9999999999999991   F   F   F
 17.4799999999999969  5.4732805519176519  9.5949999999999989   F   F   F
 19.0599999999999987  6.3854939772372603 11.1900000000000013   T   T   T
 19.0599999999999987  6.3854939772372603  7.9999999999999991   F   F   F
 19.0599999999999987  8.2099208278764770  9.5949999999999989   F   F   F
 17.4799999999999969  9.1221342531960872 11.1900000000000013   T   T   T
 17.4799999999999969  9.1221342531960872  7.9999999999999991   F   F   F
 20.6400000000000006  0.0000000000000000  9.5949999999999989   F   F   F
 22.2199999999999989  0.9122134253196086 11.1900000000000013   T   T   T
 22.2199999999999989  0.9122134253196086  7.9999999999999991   F   F   F
 22.2199999999999989  2.7366402759588255  9.5949999999999989   F   F   F
 20.6400000000000006  3.6488537012784343 11.1900000000000013   T   T   T
 20.6400000000000006  3.6488537012784343  7.9999999999999991   F   F   F
 20.6400000000000006  5.4732805519176519  9.5949999999999989   F   F   F
 22.2199999999999989  6.3854939772372603 11.1900000000000013   T   T   T
 22.2199999999999989  6.3854939772372603  7.9999999999999991   F   F   F
 22.2199999999999989  8.2099208278764770  9.5949999999999989   F   F   F
 20.6400000000000006  9.1221342531960872 11.1900000000000013   T   T   T
 20.6400000000000006  9.1221342531960872  7.9999999999999991   F   F   F
 25.3799999999999955  0.9122134253196086 11.1900000000000013   T   T   T
 25.3799999999999955  0.9122134253196086  7.9999999999999991   F   F   F
 23.7999999999999972  3.6488537012784343 11.1900000000000013   T   T   T
 23.7999999999999972  3.6488537012784343  7.9999999999999991   F   F   F
 25.3799999999999955  6.3854939772372603 11.1900000000000013   T   T   T
 25.3799999999999955  6.3854939772372603  7.9999999999999991   F   F   F
 23.7999999999999972  9.1221342531960872 11.1900000000000013   T   T   T
 23.7999999999999972  9.1221342531960872  7.9999999999999991   F   F   F
