Mo N  Mo N  Mo N  Mo N  Mo N  Mo N  Mo N  Mo N  Mo N  Mo N  Mo N  Mo N  Mo N  Mo N  Mo N  Mo N 
 1.0000000000000000
    11.8793939239339981    0.0000000000000000    0.0000000000000000
   -11.8793939239339998   19.9278699313298411    0.0000000000000000
     0.0000000000000000    0.0000000000000000   24.3456744503137941
 Mo  N   Mo  N   Mo  N   Mo  N   Mo  N   Mo  N   Mo  N   Mo  N   Mo  N   Mo  N   Mo  N   Mo  N   Mo  N   Mo  N   Mo  N   Mo  N  
   8   4   8   4   8   4   8   4   8   4   8   4   8   4   8   4   8   4   8   4   8   4   8   4   8   4   8   4   8   4   8   4
Selective dynamics
Cartesian
  0.0000000000000000  0.0000000000000000  7.9999999999999991   F   F   F
  2.9698484809834991  0.0000000000000000  7.9999999999999991   F   F   F
 -1.4849242404917515  7.4729512242486917  8.0000000000000000   F   F   F
 -4.4547727214752495  7.4729512242486917  7.9999999999999991   F   F   F
 -2.9698484809835000  4.9819674828324603  7.9999999999999991   F   F   F
 -0.0000000000000004  4.9819674828324603  7.9999999999999991   F   F   F
  1.4849242404917491  2.4909837414162301  7.9999999999999991   F   F   F
 -1.4849242404917500  2.4909837414162301  7.9999999999999991   F   F   F
  1.4849242404917498  0.8851924496088295  9.1922392071876828   F   F   F
 -2.9698484809835008  8.3581436738575210  9.1922392071876864   F   F   F
  1.4849242404917495  5.8671599324412904  9.1922392071876828   F   F   F
  2.9698484809834995  3.3761761910250598  9.1922392071876828   F   F   F
  2.9698484809834995  1.7703848992176590 10.3844784143753692   F   F   F
 -0.0000000000000013  1.7703848992176592 10.3844784143753692   F   F   F
 -4.4547727214752513  9.2433361234663494 10.3844784143753692   F   F   F
 -1.4849242404917509  9.2433361234663494 10.3844784143753692   F   F   F
 -0.0000000000000008  6.7523523820501197 10.3844784143753692   F   F   F
 -2.9698484809835013  6.7523523820501197 10.3844784143753692   F   F   F
 -1.4849242404917511  4.2613686406338891 10.3844784143753692   F   F   F
  1.4849242404917495  4.2613686406338891 10.3844784143753692   F   F   F
 -1.4849242404917511  2.6555773488264887 11.5767176215630556   F   F   F
 -0.0000000000000000  0.1645936074102592 11.5767176215630556   F   F   F
 -1.4849242404917495  7.6375448316589489 11.5767176215630556   F   F   F
 -0.0000000000000010  5.1465610902427184 11.5767176215630556   F   F   F
  0.0000000000000004  3.5407697984353179 12.7689568287507385   T   T   T
  2.9698484809834973  3.5407697984353179 12.7689568287507385   T   T   T
  4.4547727214752468  1.0497860570190889 12.7689568287507385   T   T   T
  1.4849242404917498  1.0497860570190889 12.7689568287507385   T   T   T
 -2.9698484809834995  8.5227372812677782 12.7689568287507385   T   T   T
 -0.0000000000000027  8.5227372812677782 12.7689568287507385   T   T   T
  1.4849242404917473  6.0317535398515485 12.7689568287507385   T   T   T
 -1.4849242404917495  6.0317535398515485 12.7689568287507385   T   T   T
  1.4849242404917464  4.4259622480441472 13.9611960359384248   T   T   T
  2.9698484809834982  1.9349785066279188 13.9611960359384248   T   T   T
 -4.4547727214752513  9.4079297308766083 13.9611960359384248   T   T   T
 -2.9698484809835008  6.9169459894603778 13.9611960359384248   T   T   T
 -2.9698484809835022  5.3111546976529773 15.1534352431261112   T   T   T
  0.0000000000000001  5.3111546976529773 15.1534352431261077   T   T   T
  1.4849242404917493  2.8201709562367485 15.1534352431261112   T   T   T
 -1.4849242404917500  2.8201709562367485 15.1534352431261112   T   T   T
 -0.0000000000000013  0.3291872148205162 15.1534352431261112   T   T   T
  2.9698484809835008  0.3291872148205162 15.1534352431261077   T   T   T
 -1.4849242404917500  7.8021384390692079 15.1534352431261112   T   T   T
 -4.4547727214752522  7.8021384390692079 15.1534352431261112   T   T   T
 -1.4849242404917509  6.1963471472618075 16.3456744503137941   T   T   T
 -0.0000000000000001  3.7053634058455760 16.3456744503137941   T   T   T
  4.4547727214752468  1.2143796644293461 16.3456744503137941   T   T   T
 -0.0000000000000039  8.6873308886780372 16.3456744503137941   T   T   T
 -5.9396969619669999  9.9639349656649205  7.9999999999999991   F   F   F
 -2.9698484809835008  9.9639349656649205  7.9999999999999991   F   F   F
 -7.4246212024587512 17.4368861899136114  8.0000000000000000   F   F   F
 -10.3944696834422494 17.4368861899136114  7.9999999999999991   F   F   F
 -8.9095454429504990 14.9459024484973817  7.9999999999999991   F   F   F
 -5.9396969619669999 14.9459024484973817  7.9999999999999991   F   F   F
 -4.4547727214752513 12.4549187070811502  7.9999999999999991   F   F   F
 -7.4246212024587503 12.4549187070811502  7.9999999999999991   F   F   F
 -4.4547727214752504 10.8491274152737507  9.1922392071876828   F   F   F
 -8.9095454429505008 18.3220786395224415  9.1922392071876864   F   F   F
 -4.4547727214752504 15.8310948981062118  9.1922392071876828   F   F   F
 -2.9698484809835004 13.3401111566899804  9.1922392071876828   F   F   F
 -2.9698484809835004 11.7343198648825791 10.3844784143753692   F   F   F
 -5.9396969619670008 11.7343198648825791 10.3844784143753692   F   F   F
 -10.3944696834422512 19.2072710891312681 10.3844784143753692   F   F   F
 -7.4246212024587503 19.2072710891312681 10.3844784143753692   F   F   F
 -5.9396969619670008 16.7162873477150384 10.3844784143753692   F   F   F
 -8.9095454429505008 16.7162873477150384 10.3844784143753692   F   F   F
 -7.4246212024587512 14.2253036062988087 10.3844784143753692   F   F   F
 -4.4547727214752504 14.2253036062988087 10.3844784143753692   F   F   F
 -7.4246212024587512 12.6195123144914092 11.5767176215630556   F   F   F
 -5.9396969619669999 10.1285285730751795 11.5767176215630556   F   F   F
 -7.4246212024587495 17.6014797973238686 11.5767176215630556   F   F   F
 -5.9396969619670008 15.1104960559076389 11.5767176215630556   F   F   F
 -5.9396969619669999 13.5047047641002393 12.7689568287507385   T   T   T
 -2.9698484809835026 13.5047047641002393 12.7689568287507385   T   T   T
 -1.4849242404917531 11.0137210226840097 12.7689568287507385   T   T   T
 -4.4547727214752504 11.0137210226840097 12.7689568287507385   T   T   T
 -8.9095454429504990 18.4866722469326987 12.7689568287507385   T   T   T
 -5.9396969619670026 18.4866722469326987 12.7689568287507385   T   T   T
 -4.4547727214752531 15.9956885055164690 12.7689568287507385   T   T   T
 -7.4246212024587495 15.9956885055164690 12.7689568287507385   T   T   T
 -4.4547727214752531 14.3898972137090677 13.9611960359384248   T   T   T
 -2.9698484809835017 11.8989134722928398 13.9611960359384248   T   T   T
 -10.3944696834422512 19.3718646965415289 13.9611960359384248   T   T   T
 -8.9095454429505008 16.8808809551252992 13.9611960359384248   T   T   T
 -8.9095454429505025 15.2750896633178979 15.1534352431261112   T   T   T
 -5.9396969619669999 15.2750896633178979 15.1534352431261077   T   T   T
 -4.4547727214752504 12.7841059219016699 15.1534352431261112   T   T   T
 -7.4246212024587503 12.7841059219016699 15.1534352431261112   T   T   T
 -5.9396969619670017 10.2931221804854367 15.1534352431261112   T   T   T
 -2.9698484809834991 10.2931221804854367 15.1534352431261077   T   T   T
 -7.4246212024587503 17.7660734047341293 15.1534352431261112   T   T   T
 -10.3944696834422530 17.7660734047341293 15.1534352431261112   T   T   T
 -7.4246212024587503 16.1602821129267298 16.3456744503137941   T   T   T
 -5.9396969619669999 13.6692983715104965 16.3456744503137941   T   T   T
 -1.4849242404917531 11.1783146300942668 16.3456744503137941   T   T   T
 -5.9396969619670035 18.6512658543429595 16.3456744503137941   T   T   T
  5.9396969619669990  0.0000000000000000  7.9999999999999991   F   F   F
  8.9095454429504990  0.0000000000000000  7.9999999999999991   F   F   F
  4.4547727214752477  7.4729512242486917  8.0000000000000000   F   F   F
  1.4849242404917495  7.4729512242486917  7.9999999999999991   F   F   F
  2.9698484809834991  4.9819674828324603  7.9999999999999991   F   F   F
  5.9396969619669981  4.9819674828324603  7.9999999999999991   F   F   F
  7.4246212024587486  2.4909837414162301  7.9999999999999991   F   F   F
  4.4547727214752495  2.4909837414162301  7.9999999999999991   F   F   F
  7.4246212024587486  0.8851924496088295  9.1922392071876828   F   F   F
  2.9698484809834982  8.3581436738575210  9.1922392071876864   F   F   F
  7.4246212024587486  5.8671599324412904  9.1922392071876828   F   F   F
  8.9095454429504990  3.3761761910250598  9.1922392071876828   F   F   F
  8.9095454429504990  1.7703848992176590 10.3844784143753692   F   F   F
  5.9396969619669981  1.7703848992176592 10.3844784143753692   F   F   F
  1.4849242404917478  9.2433361234663494 10.3844784143753692   F   F   F
  4.4547727214752477  9.2433361234663494 10.3844784143753692   F   F   F
  5.9396969619669981  6.7523523820501197 10.3844784143753692   F   F   F
  2.9698484809834977  6.7523523820501197 10.3844784143753692   F   F   F
  4.4547727214752477  4.2613686406338891 10.3844784143753692   F   F   F
  7.4246212024587486  4.2613686406338891 10.3844784143753692   F   F   F
  4.4547727214752477  2.6555773488264887 11.5767176215630556   F   F   F
  5.9396969619669990  0.1645936074102592 11.5767176215630556   F   F   F
  4.4547727214752495  7.6375448316589489 11.5767176215630556   F   F   F
  5.9396969619669981  5.1465610902427184 11.5767176215630556   F   F   F
  5.9396969619669990  3.5407697984353179 12.7689568287507385   T   T   T
  8.9095454429504954  3.5407697984353179 12.7689568287507385   T   T   T
 10.3944696834422459  1.0497860570190889 12.7689568287507385   T   T   T
  7.4246212024587486  1.0497860570190889 12.7689568287507385   T   T   T
  2.9698484809834995  8.5227372812677782 12.7689568287507385   T   T   T
  5.9396969619669964  8.5227372812677782 12.7689568287507385   T   T   T
  7.4246212024587468  6.0317535398515485 12.7689568287507385   T   T   T
  4.4547727214752495  6.0317535398515485 12.7689568287507385   T   T   T
  7.4246212024587450  4.4259622480441472 13.9611960359384248   T   T   T
  8.9095454429504972  1.9349785066279188 13.9611960359384248   T   T   T
  1.4849242404917478  9.4079297308766083 13.9611960359384248   T   T   T
  2.9698484809834982  6.9169459894603778 13.9611960359384248   T   T   T
  2.9698484809834969  5.3111546976529773 15.1534352431261112   T   T   T
  5.9396969619669990  5.3111546976529773 15.1534352431261077   T   T   T
  7.4246212024587486  2.8201709562367485 15.1534352431261112   T   T   T
  4.4547727214752495  2.8201709562367485 15.1534352431261112   T   T   T
  5.9396969619669973  0.3291872148205162 15.1534352431261112   T   T   T
  8.9095454429504990  0.3291872148205162 15.1534352431261077   T   T   T
  4.4547727214752495  7.8021384390692079 15.1534352431261112   T   T   T
  1.4849242404917469  7.8021384390692079 15.1534352431261112   T   T   T
  4.4547727214752477  6.1963471472618075 16.3456744503137941   T   T   T
  5.9396969619669990  3.7053634058455760 16.3456744503137941   T   T   T
 10.3944696834422459  1.2143796644293461 16.3456744503137941   T   T   T
  5.9396969619669955  8.6873308886780372 16.3456744503137941   T   T   T
 -0.0000000000000009  9.9639349656649205  7.9999999999999991   F   F   F
  2.9698484809834982  9.9639349656649205  7.9999999999999991   F   F   F
 -1.4849242404917524 17.4368861899136114  8.0000000000000000   F   F   F
 -4.4547727214752504 17.4368861899136114  7.9999999999999991   F   F   F
 -2.9698484809835008 14.9459024484973817  7.9999999999999991   F   F   F
 -0.0000000000000013 14.9459024484973817  7.9999999999999991   F   F   F
  1.4849242404917482 12.4549187070811502  7.9999999999999991   F   F   F
 -1.4849242404917509 12.4549187070811502  7.9999999999999991   F   F   F
  1.4849242404917489 10.8491274152737507  9.1922392071876828   F   F   F
 -2.9698484809835017 18.3220786395224415  9.1922392071876864   F   F   F
  1.4849242404917486 15.8310948981062118  9.1922392071876828   F   F   F
  2.9698484809834986 13.3401111566899804  9.1922392071876828   F   F   F
  2.9698484809834986 11.7343198648825791 10.3844784143753692   F   F   F
 -0.0000000000000022 11.7343198648825791 10.3844784143753692   F   F   F
 -4.4547727214752522 19.2072710891312681 10.3844784143753692   F   F   F
 -1.4849242404917518 19.2072710891312681 10.3844784143753692   F   F   F
 -0.0000000000000017 16.7162873477150384 10.3844784143753692   F   F   F
 -2.9698484809835022 16.7162873477150384 10.3844784143753692   F   F   F
 -1.4849242404917520 14.2253036062988087 10.3844784143753692   F   F   F
  1.4849242404917486 14.2253036062988087 10.3844784143753692   F   F   F
 -1.4849242404917520 12.6195123144914092 11.5767176215630556   F   F   F
 -0.0000000000000009 10.1285285730751795 11.5767176215630556   F   F   F
 -1.4849242404917504 17.6014797973238686 11.5767176215630556   F   F   F
 -0.0000000000000019 15.1104960559076389 11.5767176215630556   F   F   F
 -0.0000000000000005 13.5047047641002393 12.7689568287507385   T   T   T
  2.9698484809834964 13.5047047641002393 12.7689568287507385   T   T   T
  4.4547727214752459 11.0137210226840097 12.7689568287507385   T   T   T
  1.4849242404917489 11.0137210226840097 12.7689568287507385   T   T   T
 -2.9698484809835004 18.4866722469326987 12.7689568287507385   T   T   T
 -0.0000000000000036 18.4866722469326987 12.7689568287507385   T   T   T
  1.4849242404917464 15.9956885055164690 12.7689568287507385   T   T   T
 -1.4849242404917504 15.9956885055164690 12.7689568287507385   T   T   T
  1.4849242404917455 14.3898972137090677 13.9611960359384248   T   T   T
  2.9698484809834973 11.8989134722928398 13.9611960359384248   T   T   T
 -4.4547727214752522 19.3718646965415289 13.9611960359384248   T   T   T
 -2.9698484809835017 16.8808809551252992 13.9611960359384248   T   T   T
 -2.9698484809835031 15.2750896633178979 15.1534352431261112   T   T   T
 -0.0000000000000008 15.2750896633178979 15.1534352431261077   T   T   T
  1.4849242404917484 12.7841059219016699 15.1534352431261112   T   T   T
 -1.4849242404917509 12.7841059219016699 15.1534352431261112   T   T   T
 -0.0000000000000022 10.2931221804854367 15.1534352431261112   T   T   T
  2.9698484809835000 10.2931221804854367 15.1534352431261077   T   T   T
 -1.4849242404917509 17.7660734047341293 15.1534352431261112   T   T   T
 -4.4547727214752531 17.7660734047341293 15.1534352431261112   T   T   T
 -1.4849242404917518 16.1602821129267298 16.3456744503137941   T   T   T
 -0.0000000000000010 13.6692983715104965 16.3456744503137941   T   T   T
  4.4547727214752459 11.1783146300942668 16.3456744503137941   T   T   T
 -0.0000000000000048 18.6512658543429595 16.3456744503137941   T   T   T
