Mo B  Mo B  Mo B  Mo B 
 1.0000000000000000
     8.7822662223369203    0.0000000000000000    0.0000000000000005
     2.1955665555842327   16.9699999999999989    2.1955665555842319
     0.0000000000000000    0.0000000000000000   28.7822662223369221
 Mo  B   Mo  B   Mo  B   Mo  B  
  16  16  16  14  16  16  16  16
Selective dynamics
Cartesian
  3.2933498333763458  7.5855899999999972 13.2933498333763449   F   F   F
  1.0977832777921157  7.5855899999999972 11.0977832777921144   F   F   F
  2.1955665555842314 11.8280899999999978 14.3911331111684611   F   F   F
  4.3911331111684611 11.8280899999999978 12.1955665555842305   F   F   F
  2.1955665555842323 13.6269099999999987 12.1955665555842288   F   F   F
  4.3911331111684619 13.6269099999999987 14.3911331111684628   F   F   F
  3.2933498333763453  0.8994099999999988 13.2933498333763449   F   F   F
  1.0977832777921142  0.8994099999999988 11.0977832777921126   F   F   F
  5.4889163889605772 16.0705899999999993 13.2933498333763467   F   F   F
  3.2933498333763476 16.0705899999999993 15.4889163889605754   T   T   T
  5.4889163889605772  9.3844099999999990 13.2933498333763449   F   F   F
  3.2933498333763458  9.3844099999999990 15.4889163889605754   T   T   T
  2.1955665555842305  5.1419100000000002 14.3911331111684611   F   F   F
  4.3911331111684602  5.1419100000000002 12.1955665555842305   F   F   F
  2.1955665555842305  3.3430899999999970 12.1955665555842305   F   F   F
  4.3911331111684602  3.3430899999999970 14.3911331111684593   F   F   F
  3.2933498333763467 10.2159399999999998 13.2933498333763449   F   F   F
  5.4889163889605763 10.2159399999999998 15.4889163889605754   T   T   T
  2.1955665555842323 14.4584399999999995 14.3911331111684611   F   F   F
  4.3911331111684619 14.4584399999999995 12.1955665555842305   F   F   F
  2.1955665555842319 10.9965599999999988 12.1955665555842305   F   F   F
  4.3911331111684611 10.9965599999999988 14.3911331111684593   F   F   F
  3.2933498333763476 15.2390599999999967 13.2933498333763449   F   F   F
  5.4889163889605772 15.2390599999999967 15.4889163889605754   T   T   T
  1.0977832777921150  1.7309399999999995 13.2933498333763449   F   F   F
  3.2933498333763449  1.7309399999999995 11.0977832777921144   F   F   F
  1.0977832777921159  6.7540599999999964 13.2933498333763449   F   F   F
  3.2933498333763458  6.7540599999999964 11.0977832777921144   F   F   F
  2.1955665555842301  2.5115599999999962 14.3911331111684593   F   F   F
  4.3911331111684602  2.5115599999999962 12.1955665555842288   F   F   F
  2.1955665555842305  5.9734399999999992 12.1955665555842288   F   F   F
  4.3911331111684611  5.9734399999999992 14.3911331111684611   F   F   F
  3.2933498333763458  7.5855899999999972 17.6844829445448077   T   T   T
  1.0977832777921157  7.5855899999999972 15.4889163889605754   T   T   T
  2.1955665555842314 11.8280899999999978 18.7822662223369221   T   T   T
  4.3911331111684611 11.8280899999999978 16.5866996667526934   T   T   T
  2.1955665555842323 13.6269099999999987 16.5866996667526898   T   T   T
  4.3911331111684619 13.6269099999999987 18.7822662223369221   T   T   T
  3.2933498333763453  0.8994099999999988 17.6844829445448077   T   T   T
  1.0977832777921142  0.8994099999999988 15.4889163889605754   T   T   T
  5.4889163889605772 16.0705899999999993 17.6844829445448042   T   T   T
  3.2933498333763476 16.0705899999999993 19.8800495001290365   T   T   T
  5.4889163889605772  9.3844099999999990 17.6844829445448077   T   T   T
  3.2933498333763458  9.3844099999999990 19.8800495001290365   T   T   T
  2.1955665555842305  5.1419100000000002 18.7822662223369221   T   T   T
  4.3911331111684602  5.1419100000000002 16.5866996667526898   T   T   T
  2.1955665555842305  3.3430899999999970 16.5866996667526934   T   T   T
  4.3911331111684602  3.3430899999999970 18.7822662223369221   T   T   T
  3.2933498333763467 10.2159399999999998 17.6844829445448077   T   T   T
  2.1955665555842323 14.4584399999999995 18.7822662223369221   T   T   T
  4.3911331111684619 14.4584399999999995 16.5866996667526898   T   T   T
  2.1955665555842319 10.9965599999999988 16.5866996667526934   T   T   T
  3.2933498333763476 15.2390599999999967 17.6844829445448077   T   T   T
  5.4889163889605772 15.2390599999999967 19.8800495001290365   T   T   T
  1.0977832777921150  1.7309399999999995 17.6844829445448077   T   T   T
  3.2933498333763449  1.7309399999999995 15.4889163889605719   F   F   F
  1.0977832777921159  6.7540599999999964 17.6844829445448077   T   T   T
  3.2933498333763458  6.7540599999999964 15.4889163889605754   T   T   T
  2.1955665555842301  2.5115599999999962 18.7822662223369186   T   T   T
  4.3911331111684602  2.5115599999999962 16.5866996667526863   T   T   T
  2.1955665555842305  5.9734399999999992 16.5866996667526898   T   T   T
  4.3911331111684611  5.9734399999999992 18.7822662223369221   T   T   T
  7.6844829445448060  7.5855899999999972 13.2933498333763449   F   F   F
  5.4889163889605754  7.5855899999999972 11.0977832777921144   F   F   F
  6.5866996667526916 11.8280899999999978 14.3911331111684611   F   F   F
  8.7822662223369221 11.8280899999999978 12.1955665555842305   F   F   F
  6.5866996667526925 13.6269099999999987 12.1955665555842288   F   F   F
  8.7822662223369221 13.6269099999999987 14.3911331111684628   F   F   F
  7.6844829445448060  0.8994099999999988 13.2933498333763449   F   F   F
  5.4889163889605745  0.8994099999999988 11.0977832777921126   F   F   F
  9.8800495001290365 16.0705899999999993 13.2933498333763467   F   F   F
  7.6844829445448077 16.0705899999999993 15.4889163889605754   T   T   T
  9.8800495001290365  9.3844099999999990 13.2933498333763449   F   F   F
  7.6844829445448060  9.3844099999999990 15.4889163889605754   T   T   T
  6.5866996667526907  5.1419100000000002 14.3911331111684611   F   F   F
  8.7822662223369203  5.1419100000000002 12.1955665555842305   F   F   F
  6.5866996667526907  3.3430899999999970 12.1955665555842305   F   F   F
  8.7822662223369203  3.3430899999999970 14.3911331111684593   F   F   F
  7.6844829445448068 10.2159399999999998 13.2933498333763449   F   F   F
  9.8800495001290365 10.2159399999999998 15.4889163889605754   T   T   T
  6.5866996667526925 14.4584399999999995 14.3911331111684611   F   F   F
  8.7822662223369221 14.4584399999999995 12.1955665555842305   F   F   F
  6.5866996667526916 10.9965599999999988 12.1955665555842305   F   F   F
  8.7822662223369221 10.9965599999999988 14.3911331111684593   F   F   F
  7.6844829445448077 15.2390599999999967 13.2933498333763449   F   F   F
  9.8800495001290365 15.2390599999999967 15.4889163889605754   T   T   T
  5.4889163889605754  1.7309399999999995 13.2933498333763449   F   F   F
  7.6844829445448051  1.7309399999999995 11.0977832777921144   F   F   F
  5.4889163889605763  6.7540599999999964 13.2933498333763449   F   F   F
  7.6844829445448060  6.7540599999999964 11.0977832777921144   F   F   F
  6.5866996667526898  2.5115599999999962 14.3911331111684593   F   F   F
  8.7822662223369203  2.5115599999999962 12.1955665555842288   F   F   F
  6.5866996667526907  5.9734399999999992 12.1955665555842288   F   F   F
  8.7822662223369221  5.9734399999999992 14.3911331111684611   F   F   F
  7.6844829445448060  7.5855899999999972 17.6844829445448077   T   T   T
  5.4889163889605754  7.5855899999999972 15.4889163889605754   T   T   T
  6.5866996667526916 11.8280899999999978 18.7822662223369221   T   T   T
  8.7822662223369221 11.8280899999999978 16.5866996667526934   T   T   T
  6.5866996667526925 13.6269099999999987 16.5866996667526898   T   T   T
  8.7822662223369221 13.6269099999999987 18.7822662223369221   T   T   T
  7.6844829445448060  0.8994099999999988 17.6844829445448077   T   T   T
  5.4889163889605745  0.8994099999999988 15.4889163889605754   T   T   T
  9.8800495001290365 16.0705899999999993 17.6844829445448042   T   T   T
  7.6844829445448077 16.0705899999999993 19.8800495001290365   T   T   T
  9.8800495001290365  9.3844099999999990 17.6844829445448077   T   T   T
  7.6844829445448060  9.3844099999999990 19.8800495001290365   T   T   T
  6.5866996667526907  5.1419100000000002 18.7822662223369221   T   T   T
  8.7822662223369203  5.1419100000000002 16.5866996667526898   T   T   T
  6.5866996667526907  3.3430899999999970 16.5866996667526934   T   T   T
  8.7822662223369203  3.3430899999999970 18.7822662223369221   T   T   T
  7.6844829445448068 10.2159399999999998 17.6844829445448077   T   T   T
  9.8800495001290365 10.2159399999999998 19.8800495001290365   T   T   T
  6.5866996667526925 14.4584399999999995 18.7822662223369221   T   T   T
  8.7822662223369221 14.4584399999999995 16.5866996667526898   T   T   T
  6.5866996667526916 10.9965599999999988 16.5866996667526934   T   T   T
  8.7822662223369221 10.9965599999999988 18.7822662223369221   T   T   T
  7.6844829445448077 15.2390599999999967 17.6844829445448077   T   T   T
  9.8800495001290365 15.2390599999999967 19.8800495001290365   T   T   T
  5.4889163889605754  1.7309399999999995 17.6844829445448077   T   T   T
  7.6844829445448051  1.7309399999999995 15.4889163889605719   F   F   F
  5.4889163889605763  6.7540599999999964 17.6844829445448077   T   T   T
  7.6844829445448060  6.7540599999999964 15.4889163889605754   T   T   T
  6.5866996667526898  2.5115599999999962 18.7822662223369186   T   T   T
  8.7822662223369203  2.5115599999999962 16.5866996667526863   T   T   T
  6.5866996667526907  5.9734399999999992 16.5866996667526898   T   T   T
  8.7822662223369221  5.9734399999999992 18.7822662223369221   T   T   T
