Mo N  Mo N  Mo N  Mo N  Mo N  Mo N  Mo N  Mo N  Mo N  Mo N  Mo N  Mo N  Mo N  Mo N  Mo N  Mo N 
 1.0000000000000000
    11.8793939239339981    0.0000000000000000    0.0000000000000000
    -5.9396969619669999   17.0669270813465417    0.0000000000000000
     0.0000000000000000    0.0000000000000000   26.4407142545165854
 Mo  N   Mo  N   Mo  N   Mo  N   Mo  N   Mo  N   Mo  N   Mo  N   Mo  N   Mo  N   Mo  N   Mo  N   Mo  N   Mo  N   Mo  N   Mo  N  
   8   4   8   4   8   4   8   4   8   4   8   4   8   4   8   4   8   4   8   4   8   4   8   4   8   4   8   4   8   4   8   4
Selective dynamics
Cartesian
  0.0000000000000000  0.0000000000000000  8.0000000000000000   F   F   F
  2.9698484809834995  0.0000000000000000  8.0000000000000000   F   F   F
 -1.4849242404917495  7.1752811397339258 10.0881428509033153   F   F   F
  1.4849242404917500  7.1752811397339258 10.0881428509033171   F   F   F
  2.9698484809835000  4.7835207598226166  9.3920952339355441   F   F   F
  0.0000000000000001  4.7835207598226166  9.3920952339355441   F   F   F
  1.4849242404917500  2.3917603799113083  8.6960476169677712   F   F   F
  4.4547727214752504  2.3917603799113083  8.6960476169677712   F   F   F
  1.4849242404917500  0.5167889894859808  9.3920952339355441   F   F   F
 -0.0000000000000002  6.6584921502479446  8.6960476169677712   F   F   F
 -1.4849242404917500  4.2667317703366363  8.0000000000000000   F   F   F
  2.9698484809835000  2.9085493693972890 10.0881428509033171   F   F   F
  2.9698484809835000  1.0335779789719617 10.7841904678710883   F   F   F
  0.0000000000000009  1.0335779789719617 10.7841904678710883   F   F   F
  1.4849242404917513  8.2088591187058864 12.8723333187744036   F   F   F
 -1.4849242404917489  8.2088591187058881 12.8723333187744053   F   F   F
  0.0000000000000003  5.8170987387945781 12.1762857018066324   F   F   F
  2.9698484809835008  5.8170987387945781 12.1762857018066342   F   F   F
  4.4547727214752504  3.4253383588832702 11.4802380848388612   F   F   F
  1.4849242404917520  3.4253383588832698 11.4802380848388594   F   F   F
  4.4547727214752504  1.5503669684579424 12.1762857018066342   F   F   F
  2.9698484809835000  7.6920701292199070 11.4802380848388612   F   F   F
  1.4849242404917498  5.3003097493085978 10.7841904678710883   F   F   F
  0.0000000000000004  3.9421273483692509 12.8723333187744053   F   F   F
  0.0000000000000005  2.0671559579439234 13.5683809357421765   T   T   T
  2.9698484809835004  2.0671559579439229 13.5683809357421765   T   T   T
  1.4849242404917511  0.7089735570045781 15.6565237866454936   T   T   T
  4.4547727214752522  0.7089735570045781 15.6565237866454954   T   T   T
  2.9698484809835026  6.8506767177665404 14.9604761696777224   T   T   T
  0.0000000000000012  6.8506767177665404 14.9604761696777224   T   T   T
  1.4849242404917498  4.4589163378552321 14.2644285527099495   T   T   T
 -1.4849242404917458  4.4589163378552321 14.2644285527099495   T   T   T
  1.4849242404917513  2.5839449474299041 14.9604761696777224   T   T   T
  2.9698484809835000  0.1921845675185958 14.2644285527099495   T   T   T
 -1.4849242404917484  6.3338877282805601 13.5683809357421765   T   T   T
  2.9698484809835017  4.9757053273412133 15.6565237866454936   T   T   T
  2.9698484809835008  3.1007339369158848 16.3525714036132683   T   T   T
  0.0000000000000016  3.1007339369158844 16.3525714036132683   T   T   T
  4.4547727214752522  1.7425515359765407 18.4407142545165854   T   T   T
  1.4849242404917502  1.7425515359765407 18.4407142545165854   T   T   T
  0.0000000000000008  7.8842546967385019 17.7446666375488107   T   T   T
  2.9698484809834991  7.8842546967385019 17.7446666375488107   T   T   T
 -1.4849242404917486  5.4924943168271936 17.0486190205810360   T   T   T
  1.4849242404917511  5.4924943168271927 17.0486190205810360   T   T   T
  4.4547727214752513  3.6175229264018660 17.7446666375488107   T   T   T
  0.0000000000000012  1.2257625464905584 17.0486190205810395   T   T   T
  1.4849242404917524  7.3674657072525216 16.3525714036132648   T   T   T
  0.0000000000000013  6.0092833063131730 18.4407142545165819   T   T   T
 -2.9698484809835000  8.5334635406732708  8.0000000000000000   F   F   F
 -0.0000000000000004  8.5334635406732708  8.0000000000000000   F   F   F
 -4.4547727214752495 15.7087446804071966 10.0881428509033153   F   F   F
 -1.4849242404917500 15.7087446804071966 10.0881428509033171   F   F   F
  0.0000000000000000 13.3169843004958874  9.3920952339355441   F   F   F
 -2.9698484809835000 13.3169843004958874  9.3920952339355441   F   F   F
 -1.4849242404917500 10.9252239205845783  8.6960476169677712   F   F   F
  1.4849242404917504 10.9252239205845783  8.6960476169677712   F   F   F
 -1.4849242404917500  9.0502525301592520  9.3920952339355441   F   F   F
 -2.9698484809835004 15.1919556909212154  8.6960476169677712   F   F   F
 -4.4547727214752495 12.8001953110099080  8.0000000000000000   F   F   F
  0.0000000000000000 11.4420129100705594 10.0881428509033171   F   F   F
  0.0000000000000000  9.5670415196452332 10.7841904678710883   F   F   F
 -2.9698484809834991  9.5670415196452332 10.7841904678710883   F   F   F
 -1.4849242404917486 16.7423226593791554 12.8723333187744036   F   F   F
 -4.4547727214752486 16.7423226593791590 12.8723333187744053   F   F   F
 -2.9698484809834995 14.3505622794678480 12.1762857018066324   F   F   F
  0.0000000000000009 14.3505622794678480 12.1762857018066342   F   F   F
  1.4849242404917504 11.9588018995565406 11.4802380848388612   F   F   F
 -1.4849242404917480 11.9588018995565406 11.4802380848388594   F   F   F
  1.4849242404917504 10.0838305091312126 12.1762857018066342   F   F   F
  0.0000000000000000 16.2255336698931778 11.4802380848388612   F   F   F
 -1.4849242404917502 13.8337732899818686 10.7841904678710883   F   F   F
 -2.9698484809834995 12.4755908890425218 12.8723333187744053   F   F   F
 -2.9698484809834995 10.6006194986171938 13.5683809357421765   T   T   T
  0.0000000000000004 10.6006194986171938 13.5683809357421765   T   T   T
 -1.4849242404917489  9.2424370976778487 15.6565237866454936   T   T   T
  1.4849242404917522  9.2424370976778487 15.6565237866454954   T   T   T
  0.0000000000000027 15.3841402584398104 14.9604761696777224   T   T   T
 -2.9698484809834986 15.3841402584398104 14.9604761696777224   T   T   T
 -1.4849242404917502 12.9923798785285030 14.2644285527099495   T   T   T
 -4.4547727214752459 12.9923798785285030 14.2644285527099495   T   T   T
 -1.4849242404917486 11.1174084881031749 14.9604761696777224   T   T   T
  0.0000000000000000  8.7256481081918675 14.2644285527099495   T   T   T
 -4.4547727214752486 14.8673512689538310 13.5683809357421765   T   T   T
  0.0000000000000018 13.5091688680144841 15.6565237866454936   T   T   T
  0.0000000000000009 11.6341974775891561 16.3525714036132683   T   T   T
 -2.9698484809834982 11.6341974775891543 16.3525714036132683   T   T   T
  1.4849242404917522 10.2760150766498111 18.4407142545165854   T   T   T
 -1.4849242404917498 10.2760150766498111 18.4407142545165854   T   T   T
 -2.9698484809834991 16.4177182374117727 17.7446666375488107   T   T   T
 -0.0000000000000009 16.4177182374117727 17.7446666375488107   T   T   T
 -4.4547727214752486 14.0259578575004653 17.0486190205810360   T   T   T
 -1.4849242404917489 14.0259578575004635 17.0486190205810360   T   T   T
  1.4849242404917513 12.1509864670751373 17.7446666375488107   T   T   T
 -2.9698484809834986  9.7592260871638299 17.0486190205810395   T   T   T
 -1.4849242404917475 15.9009292479257915 16.3525714036132648   T   T   T
 -2.9698484809834986 14.5427468469864429 18.4407142545165819   T   T   T
  5.9396969619669990  0.0000000000000000  8.0000000000000000   F   F   F
  8.9095454429504990  0.0000000000000000  8.0000000000000000   F   F   F
  4.4547727214752495  7.1752811397339258 10.0881428509033153   F   F   F
  7.4246212024587486  7.1752811397339258 10.0881428509033171   F   F   F
  8.9095454429504990  4.7835207598226166  9.3920952339355441   F   F   F
  5.9396969619669990  4.7835207598226166  9.3920952339355441   F   F   F
  7.4246212024587486  2.3917603799113083  8.6960476169677712   F   F   F
 10.3944696834422494  2.3917603799113083  8.6960476169677712   F   F   F
  7.4246212024587486  0.5167889894859808  9.3920952339355441   F   F   F
  5.9396969619669990  6.6584921502479446  8.6960476169677712   F   F   F
  4.4547727214752495  4.2667317703366363  8.0000000000000000   F   F   F
  8.9095454429504990  2.9085493693972890 10.0881428509033171   F   F   F
  8.9095454429504990  1.0335779789719617 10.7841904678710883   F   F   F
  5.9396969619669999  1.0335779789719617 10.7841904678710883   F   F   F
  7.4246212024587503  8.2088591187058864 12.8723333187744036   F   F   F
  4.4547727214752504  8.2088591187058881 12.8723333187744053   F   F   F
  5.9396969619669990  5.8170987387945781 12.1762857018066324   F   F   F
  8.9095454429504990  5.8170987387945781 12.1762857018066342   F   F   F
 10.3944696834422494  3.4253383588832702 11.4802380848388612   F   F   F
  7.4246212024587512  3.4253383588832698 11.4802380848388594   F   F   F
 10.3944696834422494  1.5503669684579424 12.1762857018066342   F   F   F
  8.9095454429504990  7.6920701292199070 11.4802380848388612   F   F   F
  7.4246212024587486  5.3003097493085978 10.7841904678710883   F   F   F
  5.9396969619669990  3.9421273483692509 12.8723333187744053   F   F   F
  5.9396969619669999  2.0671559579439234 13.5683809357421765   T   T   T
  8.9095454429504990  2.0671559579439229 13.5683809357421765   T   T   T
  7.4246212024587503  0.7089735570045781 15.6565237866454936   T   T   T
 10.3944696834422512  0.7089735570045781 15.6565237866454954   T   T   T
  8.9095454429505025  6.8506767177665404 14.9604761696777224   T   T   T
  5.9396969619669999  6.8506767177665404 14.9604761696777224   T   T   T
  7.4246212024587486  4.4589163378552321 14.2644285527099495   T   T   T
  4.4547727214752531  4.4589163378552321 14.2644285527099495   T   T   T
  7.4246212024587503  2.5839449474299041 14.9604761696777224   T   T   T
  8.9095454429504990  0.1921845675185958 14.2644285527099495   T   T   T
  4.4547727214752504  6.3338877282805601 13.5683809357421765   T   T   T
  8.9095454429505008  4.9757053273412133 15.6565237866454936   T   T   T
  8.9095454429504990  3.1007339369158848 16.3525714036132683   T   T   T
  5.9396969619670008  3.1007339369158844 16.3525714036132683   T   T   T
 10.3944696834422512  1.7425515359765407 18.4407142545165854   T   T   T
  7.4246212024587495  1.7425515359765407 18.4407142545165854   T   T   T
  5.9396969619669999  7.8842546967385019 17.7446666375488107   T   T   T
  8.9095454429504990  7.8842546967385019 17.7446666375488107   T   T   T
  4.4547727214752504  5.4924943168271936 17.0486190205810360   T   T   T
  7.4246212024587503  5.4924943168271927 17.0486190205810360   T   T   T
 10.3944696834422494  3.6175229264018660 17.7446666375488107   T   T   T
  5.9396969619669999  1.2257625464905584 17.0486190205810395   T   T   T
  7.4246212024587512  7.3674657072525216 16.3525714036132648   T   T   T
  5.9396969619669999  6.0092833063131730 18.4407142545165819   T   T   T
  2.9698484809834991  8.5334635406732708  8.0000000000000000   F   F   F
  5.9396969619669981  8.5334635406732708  8.0000000000000000   F   F   F
  1.4849242404917495 15.7087446804071966 10.0881428509033153   F   F   F
  4.4547727214752495 15.7087446804071966 10.0881428509033171   F   F   F
  5.9396969619669990 13.3169843004958874  9.3920952339355441   F   F   F
  2.9698484809834991 13.3169843004958874  9.3920952339355441   F   F   F
  4.4547727214752495 10.9252239205845783  8.6960476169677712   F   F   F
  7.4246212024587495 10.9252239205845783  8.6960476169677712   F   F   F
  4.4547727214752495  9.0502525301592520  9.3920952339355441   F   F   F
  2.9698484809834986 15.1919556909212154  8.6960476169677712   F   F   F
  1.4849242404917491 12.8001953110099080  8.0000000000000000   F   F   F
  5.9396969619669990 11.4420129100705594 10.0881428509033171   F   F   F
  5.9396969619669990  9.5670415196452332 10.7841904678710883   F   F   F
  2.9698484809835000  9.5670415196452332 10.7841904678710883   F   F   F
  4.4547727214752504 16.7423226593791554 12.8723333187744036   F   F   F
  1.4849242404917502 16.7423226593791590 12.8723333187744053   F   F   F
  2.9698484809834995 14.3505622794678480 12.1762857018066324   F   F   F
  5.9396969619669999 14.3505622794678480 12.1762857018066342   F   F   F
  7.4246212024587495 11.9588018995565406 11.4802380848388612   F   F   F
  4.4547727214752513 11.9588018995565406 11.4802380848388594   F   F   F
  7.4246212024587495 10.0838305091312126 12.1762857018066342   F   F   F
  5.9396969619669990 16.2255336698931778 11.4802380848388612   F   F   F
  4.4547727214752486 13.8337732899818686 10.7841904678710883   F   F   F
  2.9698484809834995 12.4755908890425218 12.8723333187744053   F   F   F
  2.9698484809834995 10.6006194986171938 13.5683809357421765   T   T   T
  5.9396969619669999 10.6006194986171938 13.5683809357421765   T   T   T
  4.4547727214752504  9.2424370976778487 15.6565237866454936   T   T   T
  7.4246212024587512  9.2424370976778487 15.6565237866454954   T   T   T
  5.9396969619670017 15.3841402584398104 14.9604761696777224   T   T   T
  2.9698484809835004 15.3841402584398104 14.9604761696777224   T   T   T
  4.4547727214752486 12.9923798785285030 14.2644285527099495   T   T   T
  1.4849242404917533 12.9923798785285030 14.2644285527099495   T   T   T
  4.4547727214752504 11.1174084881031749 14.9604761696777224   T   T   T
  5.9396969619669990  8.7256481081918675 14.2644285527099495   T   T   T
  1.4849242404917506 14.8673512689538310 13.5683809357421765   T   T   T
  5.9396969619670008 13.5091688680144841 15.6565237866454936   T   T   T
  5.9396969619669999 11.6341974775891561 16.3525714036132683   T   T   T
  2.9698484809835008 11.6341974775891543 16.3525714036132683   T   T   T
  7.4246212024587512 10.2760150766498111 18.4407142545165854   T   T   T
  4.4547727214752495 10.2760150766498111 18.4407142545165854   T   T   T
  2.9698484809835000 16.4177182374117727 17.7446666375488107   T   T   T
  5.9396969619669981 16.4177182374117727 17.7446666375488107   T   T   T
  1.4849242404917504 14.0259578575004653 17.0486190205810360   T   T   T
  4.4547727214752504 14.0259578575004635 17.0486190205810360   T   T   T
  7.4246212024587503 12.1509864670751373 17.7446666375488107   T   T   T
  2.9698484809835004  9.7592260871638299 17.0486190205810395   T   T   T
  4.4547727214752513 15.9009292479257915 16.3525714036132648   T   T   T
  2.9698484809835004 14.5427468469864429 18.4407142545165819   T   T   T
