Ni Mo N  Pt
 1.0000000000000000
    17.2444077891935734    0.0000000000000000    0.0000000000000011
     8.6222038945967832   14.9340952186598841    0.0000000000000011
     0.0000000000000000    0.0000000000000000   28.1691521614168643
 Ni  Mo  N   Pt 
 192  80  40   4
Selective dynamics
Cartesian
  2.8740679648655951 -0.0000000000000004  8.0805604744993484   F   F   F
  5.0296189385147914  1.2445079348883230  8.0805604744993484   F   F   F
  7.1851699121639880 -0.0000000000000004  8.0805604744993484   F   F   F
  5.0296189385147922  3.7335238046649701  8.0805604744993484   F   F   F
  7.1851699121639898  2.4890158697766465  8.0805604744993484   F   F   F
  9.3407208858131856  1.2445079348883230  8.0805604744993484   F   F   F
 11.4962718594623841 -0.0000000000000008  8.0805604744993484   F   F   F
  7.1851699121639889  4.9780317395532947  8.0805604744993484   F   F   F
  9.3407208858131838  3.7335238046649697  8.0805604744993484   F   F   F
 11.4962718594623823  2.4890158697766482  8.0805604744993484   F   F   F
 13.6518228331115772  1.2445079348883235  8.0805604744993484   F   F   F
 15.8073738067607774  0.0000000000000000  8.0805604744993520   F   F   F
  7.1851699121639871  7.4670476093299403  8.0805604744993484   F   F   F
  9.3407208858131874  6.2225396744416175  8.0805604744993484   F   F   F
 11.4962718594623823  4.9780317395532956  8.0805604744993467   F   F   F
 13.6518228331115807  3.7335238046649710  8.0805604744993502   F   F   F
 15.8073738067607756  2.4890158697766469  8.0805604744993520   F   F   F
 17.9629247804099741  1.2445079348883226  8.0805604744993484   F   F   F
  9.3407208858131856  8.7115555442182657  8.0805604744993484   F   F   F
 11.4962718594623823  7.4670476093299438  8.0805604744993502   F   F   F
 13.6518228331115807  6.2225396744416193  8.0805604744993484   F   F   F
 15.8073738067607756  4.9780317395532965  8.0805604744993502   F   F   F
 17.9629247804099741  3.7335238046649710  8.0805604744993520   F   F   F
  2.8740679648655965  2.4890158697766478  8.0805604744993484   F   F   F
  9.3407208858131856 11.2005714139949113  8.0805604744993502   F   F   F
 11.4962718594623823  9.9560634791065876  8.0805604744993502   F   F   F
 13.6518228331115807  8.7115555442182622  8.0805604744993502   F   F   F
 15.8073738067607739  7.4670476093299394  8.0805604744993520   F   F   F
 17.9629247804099705  6.2225396744416166  8.0805604744993484   F   F   F
 20.1184757540591690  4.9780317395532938  8.0805604744993502   F   F   F
 11.4962718594623823 12.4450793488832367  8.0805604744993502   F   F   F
 13.6518228331115772 11.2005714139949131  8.0805604744993484   F   F   F
 15.8073738067607756  9.9560634791065912  8.0805604744993484   F   F   F
 17.9629247804099705  8.7115555442182639  8.0805604744993484   F   F   F
 20.1184757540591725  7.4670476093299438  8.0805604744993484   F   F   F
  5.0296189385147896  6.2225396744416193  8.0805604744993484   F   F   F
 13.6518228331115807 13.6895872837715604  8.0805604744993484   F   F   F
 15.8073738067607721 12.4450793488832332  8.0805604744993502   F   F   F
 17.9629247804099741 11.2005714139949113  8.0805604744993484   F   F   F
 20.1184757540591690  9.9560634791065912  8.0805604744993484   F   F   F
 22.2740267277083674  8.7115555442182639  8.0805604744993484   F   F   F
 17.9629247804099776 13.6895872837715569  8.0805604744993484   F   F   F
 20.1184757540591761 12.4450793488832421  8.0805604744993502   F   F   F
 22.2740267277083674 11.2005714139949131  8.0805604744993467   F   F   F
  7.1851699121639925  9.9560634791065894  8.0805604744993484   F   F   F
 22.2740267277083674 13.6895872837715604  8.0805604744993484   F   F   F
 24.4295777013575659 12.4450793488832367  8.0805604744993484   F   F   F
  9.3407208858131838 13.6895872837715586  8.0805604744993484   F   F   F
  4.3111019472983925 -0.0000000000000004 10.1128334220468314   F   F   F
  6.4666529209475909  1.2445079348883239 10.1128334220468332   F   F   F
  8.6222038945967867 -0.0000000000000008 10.1128334220468314   F   F   F
  6.4666529209475883  3.7335238046649697 10.1128334220468314   F   F   F
  8.6222038945967867  2.4890158697766473 10.1128334220468314   F   F   F
 10.7777548682459816  1.2445079348883235 10.1128334220468332   F   F   F
 12.9333058418951801  0.0000000000000000 10.1128334220468332   F   F   F
  8.6222038945967867  4.9780317395532938 10.1128334220468314   F   F   F
 10.7777548682459816  3.7335238046649697 10.1128334220468314   F   F   F
 12.9333058418951801  2.4890158697766469 10.1128334220468314   F   F   F
 15.0888568155443767  1.2445079348883235 10.1128334220468332   F   F   F
 17.2444077891935734  0.0000000000000000 10.1128334220468314   F   F   F
  8.6222038945967867  7.4670476093299438 10.1128334220468314   F   F   F
 10.7777548682459834  6.2225396744416193 10.1128334220468314   F   F   F
 12.9333058418951783  4.9780317395532938 10.1128334220468332   F   F   F
 15.0888568155443785  3.7335238046649719 10.1128334220468332   F   F   F
 17.2444077891935734  2.4890158697766469 10.1128334220468332   F   F   F
  2.1555509736491985  1.2445079348883239 10.1128334220468314   F   F   F
 10.7777548682459834  8.7115555442182657 10.1128334220468350   F   F   F
 12.9333058418951765  7.4670476093299403 10.1128334220468314   F   F   F
 15.0888568155443767  6.2225396744416175 10.1128334220468332   F   F   F
 17.2444077891935734  4.9780317395532947 10.1128334220468332   F   F   F
 19.3999587628427719  3.7335238046649719 10.1128334220468332   F   F   F
  4.3111019472983934  2.4890158697766469 10.1128334220468297   F   F   F
 10.7777548682459816 11.2005714139949113 10.1128334220468314   F   F   F
 12.9333058418951801  9.9560634791065894 10.1128334220468350   F   F   F
 15.0888568155443803  8.7115555442182657 10.1128334220468332   F   F   F
 17.2444077891935734  7.4670476093299403 10.1128334220468314   F   F   F
 19.3999587628427683  6.2225396744416166 10.1128334220468314   F   F   F
  4.3111019472983942  4.9780317395532947 10.1128334220468314   F   F   F
 12.9333058418951801 12.4450793488832350 10.1128334220468350   F   F   F
 15.0888568155443750 11.2005714139949131 10.1128334220468350   F   F   F
 17.2444077891935734  9.9560634791065894 10.1128334220468332   F   F   F
 19.3999587628427683  8.7115555442182639 10.1128334220468332   F   F   F
 21.5555097364919632  7.4670476093299403 10.1128334220468350   F   F   F
  6.4666529209475918  6.2225396744416193 10.1128334220468350   F   F   F
 15.0888568155443785 13.6895872837715586 10.1128334220468297   F   F   F
 17.2444077891935770 12.4450793488832350 10.1128334220468332   F   F   F
 19.3999587628427683 11.2005714139949113 10.1128334220468314   F   F   F
 21.5555097364919703  9.9560634791065912 10.1128334220468314   F   F   F
  6.4666529209475909  8.7115555442182639 10.1128334220468332   F   F   F
 19.3999587628427719 13.6895872837715586 10.1128334220468332   F   F   F
 21.5555097364919703 12.4450793488832367 10.1128334220468332   F   F   F
 23.7110607101411652 11.2005714139949131 10.1128334220468314   F   F   F
  8.6222038945967920  9.9560634791065912 10.1128334220468332   F   F   F
 23.7110607101411688 13.6895872837715640 10.1128334220468332   F   F   F
  8.6222038945967885 12.4450793488832385 10.1128334220468332   F   F   F
 10.7777548682459834 13.6895872837715622 10.1128334220468314   F   F   F
  1.4370339824327971 -0.0000000000000008 12.1451063695943162   T   T   T
  3.5925849560819945  1.2445079348883230 12.1451063695943144   T   T   T
  5.7481359297311903 -0.0000000000000008 12.1451063695943144   T   T   T
  3.5925849560819931  3.7335238046649697 12.1451063695943144   T   T   T
  5.7481359297311903  2.4890158697766465 12.1451063695943144   T   T   T
  7.9036869033803878  1.2445079348883226 12.1451063695943144   T   T   T
 10.0592378770295827 -0.0000000000000008 12.1451063695943144   T   T   T
  5.7481359297311903  4.9780317395532938 12.1451063695943144   T   T   T
  7.9036869033803869  3.7335238046649697 12.1451063695943144   T   T   T
 10.0592378770295827  2.4890158697766460 12.1451063695943144   T   T   T
 12.2147888506787794  1.2445079348883226 12.1451063695943144   T   T   T
 14.3703398243279796  0.0000000000000000 12.1451063695943144   T   T   T
  5.7481359297311885  7.4670476093299394 12.1451063695943144   T   T   T
  7.9036869033803860  6.2225396744416166 12.1451063695943144   T   T   T
 10.0592378770295845  4.9780317395532938 12.1451063695943144   T   T   T
 12.2147888506787812  3.7335238046649701 12.1451063695943144   T   T   T
 14.3703398243279779  2.4890158697766469 12.1451063695943162   T   T   T
 16.5258907979771763  1.2445079348883235 12.1451063695943162   T   T   T
  7.9036869033803878  8.7115555442182639 12.1451063695943144   T   T   T
 10.0592378770295827  7.4670476093299403 12.1451063695943144   T   T   T
 12.2147888506787812  6.2225396744416175 12.1451063695943162   T   T   T
 14.3703398243279796  4.9780317395532947 12.1451063695943162   T   T   T
 16.5258907979771799  3.7335238046649701 12.1451063695943162   T   T   T
 18.6814417716263712  2.4890158697766460 12.1451063695943162   T   T   T
  7.9036869033803860 11.2005714139949113 12.1451063695943144   T   T   T
 10.0592378770295845  9.9560634791065876 12.1451063695943162   T   T   T
 12.2147888506787847  8.7115555442182657 12.1451063695943162   T   T   T
 14.3703398243279779  7.4670476093299403 12.1451063695943162   T   T   T
 16.5258907979771763  6.2225396744416166 12.1451063695943162   T   T   T
 18.6814417716263748  4.9780317395532938 12.1451063695943127   T   T   T
 10.0592378770295827 12.4450793488832332 12.1451063695943162   T   T   T
 12.2147888506787812 11.2005714139949131 12.1451063695943162   T   T   T
 14.3703398243279779  9.9560634791065876 12.1451063695943127   T   T   T
 16.5258907979771763  8.7115555442182657 12.1451063695943127   T   T   T
 18.6814417716263677  7.4670476093299394 12.1451063695943162   T   T   T
 20.8369927452755661  6.2225396744416175 12.1451063695943162   T   T   T
 12.2147888506787794 13.6895872837715586 12.1451063695943162   T   T   T
 14.3703398243279779 12.4450793488832332 12.1451063695943127   T   T   T
 16.5258907979771763 11.2005714139949095 12.1451063695943127   T   T   T
 18.6814417716263712  9.9560634791065894 12.1451063695943127   T   T   T
 20.8369927452755697  8.7115555442182639 12.1451063695943162   T   T   T
 16.5258907979771763 13.6895872837715586 12.1451063695943162   T   T   T
 18.6814417716263748 12.4450793488832350 12.1451063695943162   T   T   T
 20.8369927452755732 11.2005714139949113 12.1451063695943127   T   T   T
 22.9925437189247681  9.9560634791065894 12.1451063695943127   T   T   T
 20.8369927452755697 13.6895872837715604 12.1451063695943162   T   T   T
 22.9925437189247646 12.4450793488832332 12.1451063695943127   T   T   T
 25.1480946925739595 13.6895872837715586 12.1451063695943127   T   T   T
  2.8740679648655938 -0.0000000000000008 14.1773793171418010   T   T   T
  5.0296189385147914  1.2445079348883226 14.1773793171418010   T   T   T
  7.1851699121639880 -0.0000000000000008 14.1773793171418010   T   T   T
  5.0296189385147905  3.7335238046649684 14.1773793171418010   T   T   T
  7.1851699121639889  2.4890158697766460 14.1773793171418010   T   T   T
  9.3407208858131838  1.2445079348883217 14.1773793171417974   T   T   T
 11.4962718594623823 -0.0000000000000008 14.1773793171418010   T   T   T
  7.1851699121639871  4.9780317395532929 14.1773793171418010   T   T   T
  9.3407208858131874  3.7335238046649684 14.1773793171418010   T   T   T
 11.4962718594623805  2.4890158697766442 14.1773793171417974   T   T   T
 13.6518228331115754  1.2445079348883217 14.1773793171417974   T   T   T
 24.4295777013575588 14.9340952186598805 14.1773793171418028   T   T   T
  7.1851699121639871  7.4670476093299412 14.1773793171418010   T   T   T
  9.3407208858131838  6.2225396744416157 14.1773793171418010   T   T   T
 11.4962718594623841  4.9780317395532938 14.1773793171418010   T   T   T
 13.6518228331115790  3.7335238046649684 14.1773793171418028   T   T   T
 15.8073738067607739  2.4890158697766460 14.1773793171417992   T   T   T
 17.9629247804099705  1.2445079348883210 14.1773793171418028   T   T   T
  9.3407208858131856  8.7115555442182657 14.1773793171418010   T   T   T
 11.4962718594623787  7.4670476093299394 14.1773793171417992   T   T   T
 13.6518228331115790  6.2225396744416184 14.1773793171418028   T   T   T
 15.8073738067607756  4.9780317395532956 14.1773793171417992   T   T   T
 17.9629247804099741  3.7335238046649701 14.1773793171417957   T   T   T
  2.8740679648655956  2.4890158697766460 14.1773793171418010   T   T   T
  9.3407208858131838 11.2005714139949113 14.1773793171418028   T   T   T
 11.4962718594623805  9.9560634791065858 14.1773793171417992   T   T   T
 13.6518228331115807  8.7115555442182639 14.1773793171418028   T   T   T
 15.8073738067607756  7.4670476093299403 14.1773793171417992   T   T   T
 17.9629247804099705  6.2225396744416166 14.1773793171418028   T   T   T
 20.1184757540591654  4.9780317395532929 14.1773793171417992   T   T   T
 11.4962718594623787 12.4450793488832332 14.1773793171417992   T   T   T
 13.6518228331115772 11.2005714139949131 14.1773793171418028   T   T   T
 15.8073738067607739  9.9560634791065876 14.1773793171418028   T   T   T
 17.9629247804099741  8.7115555442182639 14.1773793171418028   T   T   T
 20.1184757540591690  7.4670476093299394 14.1773793171417992   T   T   T
  5.0296189385147887  6.2225396744416175 14.1773793171418010   T   T   T
 13.6518228331115790 13.6895872837715586 14.1773793171418028   T   T   T
 15.8073738067607721 12.4450793488832332 14.1773793171417992   T   T   T
 17.9629247804099741 11.2005714139949095 14.1773793171417992   T   T   T
 20.1184757540591690  9.9560634791065912 14.1773793171418028   T   T   T
 22.2740267277083603  8.7115555442182622 14.1773793171417992   T   T   T
 17.9629247804099705 13.6895872837715569 14.1773793171417957   T   T   T
 20.1184757540591725 12.4450793488832385 14.1773793171417992   T   T   T
 22.2740267277083674 11.2005714139949095 14.1773793171417957   T   T   T
  7.1851699121639880  9.9560634791065894 14.1773793171417974   T   T   T
 22.2740267277083674 13.6895872837715604 14.1773793171417957   T   T   T
 24.4295777013575623 12.4450793488832350 14.1773793171417957   T   T   T
  9.3407208858131856 13.6895872837715604 14.1773793171418028   T   T   T
 -2.4802748706683069 -7.0936952288634449 19.1615697850128903   T   T   T
  6.1419290239284781 -4.1068761851314672 19.1615697850128903   T   T   T
 14.7641329185252648 -1.1200571413994893 19.1615697850128903   T   T   T
  6.1419290239284781  1.8667619023324893 19.1615697850128903   T   T   T
 14.7641329185252612  4.8535809460644632 19.1615697850128903   T   T   T
 14.7641329185252630 -4.1068761851314681 19.1615697850128903   T   T   T
  6.1419290239284781 -1.1200571413994915 19.1615697850128903   T   T   T
 14.7641329185252648  1.8667619023324871 19.1615697850128903   T   T   T
  6.1419290239284772  4.8535809460644641 19.1615697850128903   T   T   T
  6.1419290239284798 -7.0936952288634449 19.1615697850128903   T   T   T
 -0.0636423316856045 -5.6002857069974548 19.8576174019806651   T   T   T
  8.5585615629111800 -2.6134666632654788 19.8576174019806651   T   T   T
 17.1807654575079667  0.3733523804664985 19.8576174019806651   T   T   T
  8.5585615629111800  3.3601714241984784 19.8576174019806651   T   T   T
 17.1807654575079667  6.3469904679304534 19.8576174019806651   T   T   T
 -0.0636423316856047 -2.6134666632654784 19.8576174019806651   T   T   T
  8.5585615629111800  0.3733523804664990 19.8576174019806651   T   T   T
 17.1807654575079667  3.3601714241984753 19.8576174019806651   T   T   T
  8.5585615629111800  6.3469904679304543 19.8576174019806651   T   T   T
  8.5585615629111818 -5.6002857069974548 19.8576174019806651   T   T   T
  2.3529902072970974 -4.1068761851314672 20.5536650189484362   T   T   T
 10.9751941018938854 -1.1200571413994906 20.5536650189484362   T   T   T
  2.3529902072970965  1.8667619023324864 20.5536650189484362   T   T   T
 10.9751941018938837  4.8535809460644650 20.5536650189484362   T   T   T
 19.5973979964906704  7.8403999897964409 20.5536650189484362   T   T   T
  2.3529902072970970 -1.1200571413994900 20.5536650189484362   T   T   T
 10.9751941018938837  1.8667619023324860 20.5536650189484362   T   T   T
 19.5973979964906668  4.8535809460644632 20.5536650189484362   T   T   T
 10.9751941018938819  7.8403999897964409 20.5536650189484362   T   T   T
 10.9751941018938837 -4.1068761851314672 20.5536650189484362   T   T   T
  4.7696227462798007 -2.6134666632654793 21.2497126359162110   T   T   T
 13.3918266408765874  0.3733523804664979 21.2497126359162110   T   T   T
  4.7696227462798007  3.3601714241984748 21.2497126359162039   T   T   T
 13.3918266408765838  6.3469904679304534 21.2497126359162110   T   T   T
 22.0140305354733741  9.3338095116624284 21.2497126359162110   T   T   T
  4.7696227462797998  0.3733523804664970 21.2497126359162039   T   T   T
 13.3918266408765856  3.3601714241984753 21.2497126359162110   T   T   T
  4.7696227462797971  6.3469904679304516 21.2497126359162039   T   T   T
 13.3918266408765874  9.3338095116624302 21.2497126359162110   T   T   T
 13.3918266408765874 -2.6134666632654784 21.2497126359162039   T   T   T
 -3.5246011320023314 -10.0805142725954227 16.3773793171418021   T   T   T
  5.0976027625944553 -7.0936952288634449 16.3773793171418021   T   T   T
 13.7198066571912385 -4.1068761851314672 16.3773793171418021   T   T   T
  5.0976027625944527 -1.1200571413994893 16.3773793171418021   T   T   T
 13.7198066571912385  1.8667619023324864 16.3773793171418021   T   T   T
 13.7198066571912403 -7.0936952288634449 16.3773793171418021   T   T   T
  5.0976027625944536 -4.1068761851314681 16.3773793171418021   T   T   T
 13.7198066571912385 -1.1200571413994889 16.3773793171418021   T   T   T
  5.0976027625944536  1.8667619023324871 16.3773793171418021   T   T   T
  5.0976027625944536 -10.0805142725954227 16.3773793171418021   T   T   T
 -1.1079685930196286 -8.5871047507294325 17.0734269341095732   T   T   T
  7.5142353015771572 -5.6002857069974565 17.0734269341095732   T   T   T
 16.1364391961739422 -2.6134666632654788 17.0734269341095732   T   T   T
  7.5142353015771572  0.3733523804665019 17.0734269341095732   T   T   T
 16.1364391961739422  3.3601714241984761 17.0734269341095732   T   T   T
 -1.1079685930196295 -5.6002857069974565 17.0734269341095732   T   T   T
  7.5142353015771564 -2.6134666632654784 17.0734269341095732   T   T   T
 16.1364391961739422  0.3733523804664979 17.0734269341095732   T   T   T
  7.5142353015771564  3.3601714241984779 17.0734269341095732   T   T   T
  7.5142353015771564 -8.5871047507294325 17.0734269341095732   T   T   T
  1.3086639459630733 -7.0936952288634432 17.7694745510773480   T   T   T
  9.9308678405598592 -4.1068761851314664 17.7694745510773480   T   T   T
  1.3086639459630729 -1.1200571413994898 17.7694745510773480   T   T   T
  9.9308678405598592  1.8667619023324893 17.7694745510773480   T   T   T
 18.5530717351566423  4.8535809460644650 17.7694745510773480   T   T   T
  1.3086639459630733 -4.1068761851314664 17.7694745510773480   T   T   T
  9.9308678405598592 -1.1200571413994893 17.7694745510773480   T   T   T
 18.5530717351566459  1.8667619023324868 17.7694745510773480   T   T   T
  9.9308678405598592  4.8535809460644659 17.7694745510773480   T   T   T
  9.9308678405598592 -7.0936952288634432 17.7694745510773480   T   T   T
  3.7252964849457757 -5.6002857069974565 18.4655221680451191   T   T   T
 12.3475003795425629 -2.6134666632654788 18.4655221680451191   T   T   T
  3.7252964849457761  0.3733523804664986 18.4655221680451191   T   T   T
 12.3475003795425611  3.3601714241984761 18.4655221680451191   T   T   T
 20.9697042741393496  6.3469904679304534 18.4655221680451191   T   T   T
  3.7252964849457753 -2.6134666632654802 18.4655221680451191   T   T   T
 12.3475003795425629  0.3733523804664980 18.4655221680451191   T   T   T
  3.7252964849457739  3.3601714241984753 18.4655221680451191   T   T   T
 12.3475003795425629  6.3469904679304543 18.4655221680451191   T   T   T
 12.3475003795425629 -5.6002857069974565 18.4655221680451156   T   T   T
 -1.9581117400012951 -5.6002857069974565 20.5536650189484362   T   T   T
  6.6640921545954912 -2.6134666632654788 20.5536650189484362   T   T   T
 15.2862960491922770  0.3733523804664985 20.5536650189484362   T   T   T
  6.6640921545954894  3.3601714241984761 20.5536650189484362   T   T   T
 15.2862960491922752  6.3469904679304516 20.5536650189484362   T   T   T
  0.4585207989814066 -1.1200571413994911 21.2497126359162074   T   T   T
  9.0807246935781940  1.8667619023324864 21.2497126359162110   T   T   T
 17.7029285881749772  4.8535809460644623 21.2497126359162110   T   T   T
  9.0807246935781905  7.8403999897964409 21.2497126359162110   T   T   T
  9.0807246935781940 -4.1068761851314681 21.2497126359162074   T   T   T
  1.8308270766300854 -2.6134666632654779 19.1615697850128903   T   T   T
 10.4530309712268714  0.3733523804664974 19.1615697850128903   T   T   T
 19.0752348658236528  3.3601714241984748 19.1615697850128903   T   T   T
 10.4530309712268714  6.3469904679304543 19.1615697850128903   T   T   T
 10.4530309712268714 -5.6002857069974548 19.1615697850128903   T   T   T
  4.2474596156127893 -4.1068761851314672 19.8576174019806651   T   T   T
 12.8696635102095751 -1.1200571413994893 19.8576174019806651   T   T   T
  4.2474596156127884  1.8667619023324880 19.8576174019806651   T   T   T
 12.8696635102095716  4.8535809460644650 19.8576174019806651   T   T   T
 21.4918674048063636  7.8403999897964427 19.8576174019806651   T   T   T
 -3.0024380013353191 -8.5871047507294325 17.7694745510773480   T   T   T
  5.6197658932614676 -5.6002857069974548 17.7694745510773480   T   T   T
 14.2419697878582525 -2.6134666632654775 17.7694745510773480   T   T   T
  5.6197658932614658  0.3733523804664999 17.7694745510773480   T   T   T
 14.2419697878582507  3.3601714241984757 17.7694745510773480   T   T   T
 -0.5858054623526177 -4.1068761851314681 18.4655221680451191   T   T   T
  8.0363984322441695 -1.1200571413994902 18.4655221680451191   T   T   T
 16.6586023268409562  1.8667619023324860 18.4655221680451191   T   T   T
  8.0363984322441677  4.8535809460644659 18.4655221680451191   T   T   T
  8.0363984322441713 -7.0936952288634449 18.4655221680451191   T   T   T
  0.7865008152960611 -5.6002857069974556 16.3773793171418021   T   T   T
  9.4087047098928487 -2.6134666632654788 16.3773793171418021   T   T   T
 18.0309086044896354  0.3733523804664973 16.3773793171418021   T   T   T
  9.4087047098928469  3.3601714241984766 16.3773793171418021   T   T   T
  9.4087047098928451 -8.5871047507294325 16.3773793171418021   T   T   T
  3.2031333542787648 -7.0936952288634449 17.0734269341095732   T   T   T
 11.8253372488755506 -4.1068761851314672 17.0734269341095732   T   T   T
  3.2031333542787643 -1.1200571413994893 17.0734269341095732   T   T   T
 11.8253372488755488  1.8667619023324880 17.0734269341095732   T   T   T
 20.4475411434723426  4.8535809460644650 17.0734269341095732   T   T   T
 10.5633343618702185  2.9164493230921424 23.0497126359162117   T   T   T
 10.5633343618702185  5.3164493230921428 23.0497126359162117   T   T   T
 12.9633343618702170  2.9164493230921424 23.0497126359162117   T   T   T
 12.9633343618702170  5.3164493230921428 23.0497126359162117   T   T   T
