B  Mo Ni Mo B  Mo
 1.0000000000000000
     8.8139446061340774    0.0000000000000000    0.0000000000000005
    -2.2034861515335202    8.4946000000000002    0.0000000000000005
     0.0000000000000000    0.0000000000000000   27.7122015303673237
 B   Mo  Ni  Mo  B   Mo 
  16  13   1   2  16  16
Selective dynamics
Cartesian
  3.3052292273002792  1.7328983999999996 10.0000000000000000   F   F   F
  1.1017430757667601  1.7328983999999996 12.2034861515335251   F   F   F
 -0.0000000000000004  5.9801983999999990 13.3052292273002841   F   F   F
  2.2034861515335198  5.9801983999999990 11.1017430757667626   F   F   F
  0.0000000000000009  2.5144016000000002 11.1017430757667626   F   F   F
  2.2034861515335193  2.5144016000000002 13.3052292273002841   F   F   F
 -1.1017430757667603  6.7617015999999994 10.0000000000000000   F   F   F
  1.1017430757667590  6.7617015999999994 12.2034861515335251   F   F   F
  3.3052292273002783  1.7328984000000007 14.4069723030670431   T   T   T
  1.1017430757667601  1.7328983999999996 16.6104584546005611   T   T   T
  0.0000000000000000  5.9801983999999990 17.7122015303673237   T   T   T
  2.2034861515335180  5.9801983999999990 15.5087153788338021   T   T   T
 -0.0000000000000008  2.5144016000000002 15.5087153788338021   T   T   T
  2.2034861515335193  2.5144016000000002 17.7122015303673237   T   T   T
 -1.1017430757667612  6.7617015999999994 14.4069723030670431   T   T   T
  1.1017430757667599  6.7617015999999994 16.6104584546005611   T   T   T
  1.1017430757667590  7.5941724000000015 10.0000000000000000   F   F   F
 -1.1017430757667594  7.5941724000000015 12.2034861515335251   F   F   F
 -0.0000000000000001  3.3468724000000001 13.3052292273002841   F   F   F
  2.2034861515335202  3.3468724000000001 11.1017430757667626   F   F   F
  0.0000000000000004  5.1477276000000005 11.1017430757667626   F   F   F
  2.2034861515335198  5.1477276000000005 13.3052292273002841   F   F   F
  1.1017430757667597  0.9004275999999989 10.0000000000000000   F   F   F
  3.3052292273002801  0.9004275999999989 12.2034861515335251   F   F   F
  1.1017430757667592  7.5941724000000006 14.4069723030670431   T   T   T
 -1.1017430757667612  7.5941724000000015 16.6104584546005611   T   T   T
  0.0000000000000002  3.3468724000000001 17.7122015303673237   T   T   T
  2.2034861515335180  3.3468724000000001 15.5087153788338021   T   T   T
  0.0000000000000007  5.1477276000000005 15.5087153788338021   T   T   T
  2.2034861515335198  5.1477276000000005 17.7122015303673237   T   T   T
  1.1017430757667599  0.9004275999999999 14.4069723030670431   T   T   T
  3.3052292273002783  0.9004275999999989 16.6104584546005611   T   T   T
  7.7122015303673184  1.7328983999999996 10.0000000000000000   F   F   F
  5.5087153788337986  1.7328983999999996 12.2034861515335251   F   F   F
  4.4069723030670378  5.9801983999999990 13.3052292273002841   F   F   F
  6.6104584546005585  5.9801983999999990 11.1017430757667626   F   F   F
  4.4069723030670396  2.5144016000000002 11.1017430757667626   F   F   F
  6.6104584546005576  2.5144016000000002 13.3052292273002841   F   F   F
  3.3052292273002783  6.7617015999999994 10.0000000000000000   F   F   F
  5.5087153788337977  6.7617015999999994 12.2034861515335251   F   F   F
  7.7122015303673166  1.7328984000000007 14.4069723030670431   T   T   T
  5.5087153788337986  1.7328983999999996 16.6104584546005611   T   T   T
  4.4069723030670387  5.9801983999999990 17.7122015303673237   T   T   T
  6.6104584546005567  5.9801983999999990 15.5087153788338021   T   T   T
  4.4069723030670378  2.5144016000000002 15.5087153788338021   T   T   T
  6.6104584546005576  2.5144016000000002 17.7122015303673237   T   T   T
  3.3052292273002775  6.7617015999999994 14.4069723030670431   T   T   T
  5.5087153788337986  6.7617015999999994 16.6104584546005611   T   T   T
  5.5087153788337977  7.5941724000000015 10.0000000000000000   F   F   F
  3.3052292273002792  7.5941724000000015 12.2034861515335251   F   F   F
  4.4069723030670387  3.3468724000000001 13.3052292273002841   F   F   F
  6.6104584546005594  3.3468724000000001 11.1017430757667626   F   F   F
  4.4069723030670396  5.1477276000000005 11.1017430757667626   F   F   F
  6.6104584546005585  5.1477276000000005 13.3052292273002841   F   F   F
  5.5087153788337986  0.9004275999999989 10.0000000000000000   F   F   F
  7.7122015303673184  0.9004275999999989 12.2034861515335251   F   F   F
  5.5087153788337977  7.5941724000000006 14.4069723030670431   T   T   T
  3.3052292273002775  7.5941724000000015 16.6104584546005611   T   T   T
  4.4069723030670387  3.3468724000000001 17.7122015303673237   T   T   T
  6.6104584546005567  3.3468724000000001 15.5087153788338021   T   T   T
  4.4069723030670396  5.1477276000000005 15.5087153788338021   T   T   T
  6.6104584546005585  5.1477276000000005 17.7122015303673237   T   T   T
  5.5087153788337986  0.9004275999999999 14.4069723030670431   T   T   T
  7.7122015303673166  0.9004275999999989 16.6104584546005611   T   T   T
