Mo B  Mo B  Mo B  Mo B  Mo B  Mo B  Mo B  Mo B  Mo B  Mo B  Mo B  Mo B  Mo B  Mo B  Mo B  Mo B  Mo B  Mo B  Mo B  Mo B  Mo B  Mo B  Mo B  Mo B  Mo B  Mo B  Mo B  Mo B  Mo B  Mo B  Mo B  Mo B  Mo B  Mo B  Mo B  Mo B  Mo B  Mo B  Mo B  Mo B  Mo B  Mo B  Mo B  Mo B  Mo B  Mo B  Mo B  Mo B  Mo
 1.0000000000000000
    69.6039000000000101    0.0000000000000000    0.0000000000000043
     0.0000000000000015    9.3486000000000011    0.0000000000000006
     0.0000000000000000    0.0000000000000000   66.3550896000000137
 Mo  B   Mo  B   Mo  B   Mo  B   Mo  B   Mo  B   Mo  B   Mo  B   Mo  B   Mo  B   Mo  B   Mo  B   Mo  B   Mo  B   Mo  B   Mo  B   Mo  B   Mo  B   Mo  B   Mo  B   Mo  B   Mo  B   Mo  B   Mo  B   Mo  B   Mo  B   Mo  B   Mo  B   Mo  B   Mo  B   Mo  B   Mo  B   Mo  B   Mo  B   Mo  B   Mo  B   Mo  B   Mo  B   Mo  B   Mo  B   Mo  B   Mo  B   Mo  B   Mo  B   Mo  B   Mo  B   Mo  B   Mo  B   Mo 
  56   8   8   8   8   8   8   8   8   8   8   8   8   8   8   8   8   8   8   8   8   8   8   8   8   8   8   8   8   8   8   8   8   8   8   8   8   8   8   8   8   8   8   8   8   8   8   8   8   8   8   8   8   8   8   8   8   8   8   8   8   8   8   8   8   8   8   8   8   8   8   8   8   8   8   8   8   8   8   8   8   8   8   8   8   8   8   8   8   8   8   8   8   8   8   8  48
Selective dynamics
Cartesian
 21.5580999999999996  0.0000000000000000 25.5833724000000018   F   F   F
 21.5580999999999996  1.5581000000000000 21.3360724000000062   F   F   F
 20.0000000000000000  0.0000000000000000 19.5352172000000053   F   F   F
 21.5580999999999996  0.0000000000000000 32.2771171999999993   F   F   F
 20.0000000000000000  1.5581000000000000 17.0887724000000034   F   F   F
 20.0000000000000000  1.5581000000000000 23.7825172000000080   F   F   F
 21.5580999999999996  1.5581000000000000 28.0298172000000037   F   F   F
 20.0000000000000000  0.0000000000000000 29.8306724000000045   F   F   F
 21.5580999999999996  0.0000000000000000 42.5725724000000056   T   T   T
 21.5580999999999996  1.5581000000000000 38.3252724000000029   T   T   T
 20.0000000000000000  0.0000000000000000 36.5244172000000020   T   T   T
 21.5580999999999996  0.0000000000000000 49.2663172000000031   T   T   T
 20.0000000000000000  1.5581000000000000 34.0779724000000002   T   T   T
 20.0000000000000000  1.5581000000000000 40.7717172000000048   T   T   T
 21.5580999999999996  1.5581000000000000 45.0190172000000004   T   T   T
 20.0000000000000000  0.0000000000000000 46.8198724000000013   T   T   T
 21.5580999999999996  3.1162000000000001 25.5833724000000018   F   F   F
 21.5580999999999996  4.6743000000000006 21.3360724000000062   F   F   F
 20.0000000000000000  3.1162000000000001 19.5352172000000053   F   F   F
 21.5580999999999996  3.1162000000000001 32.2771171999999993   F   F   F
 20.0000000000000000  4.6743000000000006 17.0887724000000034   F   F   F
 20.0000000000000000  4.6743000000000006 23.7825172000000080   F   F   F
 21.5580999999999996  4.6743000000000006 28.0298172000000037   F   F   F
 20.0000000000000000  3.1162000000000001 29.8306724000000045   F   F   F
 21.5580999999999996  3.1162000000000001 42.5725724000000056   T   T   T
 21.5580999999999996  4.6743000000000006 38.3252724000000029   T   T   T
 20.0000000000000000  3.1162000000000001 36.5244172000000020   T   T   T
 21.5580999999999996  3.1162000000000001 49.2663172000000031   T   T   T
 20.0000000000000000  4.6743000000000006 34.0779724000000002   T   T   T
 20.0000000000000000  4.6743000000000006 40.7717172000000048   T   T   T
 21.5580999999999996  4.6743000000000006 45.0190172000000004   T   T   T
 20.0000000000000000  3.1162000000000001 46.8198724000000013   T   T   T
 21.5580999999999996  6.2324000000000002 25.5833724000000018   F   F   F
 21.5581000000000031  7.7904999999999998 21.3360724000000062   F   F   F
 20.0000000000000000  6.2324000000000002 19.5352172000000053   F   F   F
 21.5580999999999996  6.2324000000000002 32.2771171999999993   F   F   F
 20.0000000000000000  7.7904999999999998 17.0887724000000034   F   F   F
 20.0000000000000000  7.7904999999999998 23.7825172000000080   F   F   F
 21.5581000000000031  7.7904999999999998 28.0298172000000037   F   F   F
 20.0000000000000000  6.2324000000000002 29.8306724000000045   F   F   F
 21.5580999999999996  6.2324000000000002 42.5725724000000056   T   T   T
 21.5581000000000031  7.7904999999999998 38.3252724000000029   T   T   T
 20.0000000000000000  6.2324000000000002 36.5244172000000020   T   T   T
 21.5580999999999996  6.2324000000000002 49.2663172000000031   T   T   T
 20.0000000000000000  7.7904999999999998 34.0779724000000002   T   T   T
 20.0000000000000000  7.7904999999999998 40.7717172000000048   T   T   T
 21.5581000000000031  7.7904999999999998 45.0190172000000004   T   T   T
 20.0000000000000000  6.2324000000000002 46.8198724000000013   T   T   T
 24.6743000000000023  0.0000000000000000 25.5833724000000018   F   F   F
 24.6743000000000023  1.5581000000000000 21.3360724000000062   F   F   F
 23.1161999999999992  0.0000000000000000 19.5352172000000053   F   F   F
 24.6743000000000023  0.0000000000000000 32.2771171999999993   F   F   F
 23.1161999999999992  1.5581000000000000 17.0887724000000034   F   F   F
 23.1161999999999992  1.5581000000000000 23.7825172000000080   F   F   F
 24.6743000000000023  1.5581000000000000 28.0298172000000037   F   F   F
 23.1161999999999992  0.0000000000000000 29.8306724000000045   F   F   F
 24.6743000000000023  0.0000000000000000 22.9500464000000051   F   F   F
 24.6743000000000023  1.5581000000000000 18.7027464000000094   F   F   F
 23.1161999999999992  0.0000000000000000 22.1685432000000020   F   F   F
 24.6743000000000023  0.0000000000000000 17.9212432000000064   F   F   F
 23.1161999999999992  1.5581000000000000 31.4446464000000034   F   F   F
 23.1161999999999992  1.5581000000000000 26.4158432000000047   F   F   F
 24.6743000000000023  1.5581000000000000 30.6631432000000004   F   F   F
 23.1161999999999992  0.0000000000000000 27.1973464000000078   F   F   F
 24.6743000000000023  0.0000000000000000 42.5725724000000056   T   T   T
 24.6743000000000023  1.5581000000000000 38.3252724000000029   T   T   T
 23.1161999999999992  0.0000000000000000 36.5244172000000020   T   T   T
 24.6743000000000023  0.0000000000000000 49.2663172000000031   T   T   T
 23.1161999999999992  1.5581000000000000 34.0779724000000002   T   T   T
 23.1161999999999992  1.5581000000000000 40.7717172000000048   T   T   T
 24.6743000000000023  1.5581000000000000 45.0190172000000004   T   T   T
 23.1161999999999992  0.0000000000000000 46.8198724000000013   T   T   T
 24.6743000000000023  0.0000000000000000 39.9392464000000018   T   T   T
 24.6743000000000023  1.5581000000000000 35.6919463999999991   T   T   T
 23.1161999999999992  0.0000000000000000 39.1577432000000059   T   T   T
 24.6743000000000023  0.0000000000000000 34.9104432000000031   T   T   T
 23.1161999999999992  1.5581000000000000 48.4338464000000002   T   T   T
 23.1161999999999992  1.5581000000000000 43.4050432000000015   T   T   T
 24.6743000000000023  1.5581000000000000 47.6523432000000042   T   T   T
 23.1161999999999992  0.0000000000000000 44.1865464000000046   T   T   T
 24.6743000000000023  3.1162000000000001 25.5833724000000018   F   F   F
 24.6743000000000023  4.6743000000000006 21.3360724000000062   F   F   F
 23.1161999999999992  3.1162000000000001 19.5352172000000053   F   F   F
 24.6743000000000023  3.1162000000000001 32.2771171999999993   F   F   F
 23.1161999999999992  4.6743000000000006 17.0887724000000034   F   F   F
 23.1161999999999992  4.6743000000000006 23.7825172000000080   F   F   F
 24.6743000000000023  4.6743000000000006 28.0298172000000037   F   F   F
 23.1161999999999992  3.1162000000000001 29.8306724000000045   F   F   F
 24.6743000000000023  3.1162000000000001 22.9500464000000051   F   F   F
 24.6743000000000023  4.6743000000000006 18.7027464000000094   F   F   F
 23.1161999999999992  3.1162000000000001 22.1685432000000020   F   F   F
 24.6743000000000023  3.1162000000000001 17.9212432000000064   F   F   F
 23.1161999999999992  4.6743000000000006 31.4446464000000034   F   F   F
 23.1161999999999992  4.6743000000000006 26.4158432000000047   F   F   F
 24.6743000000000023  4.6743000000000006 30.6631432000000004   F   F   F
 23.1161999999999992  3.1162000000000001 27.1973464000000078   F   F   F
 24.6743000000000023  3.1162000000000001 42.5725724000000056   T   T   T
 24.6743000000000023  4.6743000000000006 38.3252724000000029   T   T   T
 23.1161999999999992  3.1162000000000001 36.5244172000000020   T   T   T
 24.6743000000000023  3.1162000000000001 49.2663172000000031   T   T   T
 23.1161999999999992  4.6743000000000006 34.0779724000000002   T   T   T
 23.1161999999999992  4.6743000000000006 40.7717172000000048   T   T   T
 24.6743000000000023  4.6743000000000006 45.0190172000000004   T   T   T
 23.1161999999999992  3.1162000000000001 46.8198724000000013   T   T   T
 24.6743000000000023  3.1162000000000001 39.9392464000000018   T   T   T
 24.6743000000000023  4.6743000000000006 35.6919463999999991   T   T   T
 23.1161999999999992  3.1162000000000001 39.1577432000000059   T   T   T
 24.6743000000000023  3.1162000000000001 34.9104432000000031   T   T   T
 23.1161999999999992  4.6743000000000006 48.4338464000000002   T   T   T
 23.1161999999999992  4.6743000000000006 43.4050432000000015   T   T   T
 24.6743000000000023  4.6743000000000006 47.6523432000000042   T   T   T
 23.1161999999999992  3.1162000000000001 44.1865464000000046   T   T   T
 24.6743000000000023  6.2324000000000002 25.5833724000000018   F   F   F
 24.6743000000000023  7.7904999999999998 21.3360724000000062   F   F   F
 23.1161999999999992  6.2324000000000002 19.5352172000000053   F   F   F
 24.6743000000000023  6.2324000000000002 32.2771171999999993   F   F   F
 23.1162000000000027  7.7904999999999998 17.0887724000000034   F   F   F
 23.1162000000000027  7.7904999999999998 23.7825172000000080   F   F   F
 24.6743000000000023  7.7904999999999998 28.0298172000000037   F   F   F
 23.1161999999999992  6.2324000000000002 29.8306724000000045   F   F   F
 24.6743000000000023  6.2324000000000002 22.9500464000000051   F   F   F
 24.6743000000000023  7.7904999999999998 18.7027464000000094   F   F   F
 23.1161999999999992  6.2324000000000002 22.1685432000000091   F   F   F
 24.6743000000000023  6.2324000000000002 17.9212432000000064   F   F   F
 23.1162000000000027  7.7904999999999998 31.4446464000000034   F   F   F
 23.1162000000000027  7.7904999999999998 26.4158432000000047   F   F   F
 24.6743000000000023  7.7904999999999998 30.6631432000000004   F   F   F
 23.1161999999999992  6.2324000000000002 27.1973464000000078   F   F   F
 24.6743000000000023  6.2324000000000002 42.5725724000000056   T   T   T
 24.6743000000000023  7.7904999999999998 38.3252724000000029   T   T   T
 23.1161999999999992  6.2324000000000002 36.5244172000000020   T   T   T
 24.6743000000000023  6.2324000000000002 49.2663172000000031   T   T   T
 23.1162000000000027  7.7904999999999998 34.0779724000000002   T   T   T
 23.1162000000000027  7.7904999999999998 40.7717172000000048   T   T   T
 24.6743000000000023  7.7904999999999998 45.0190172000000004   T   T   T
 23.1161999999999992  6.2324000000000002 46.8198724000000013   T   T   T
 24.6743000000000023  6.2324000000000002 39.9392464000000018   T   T   T
 24.6743000000000023  7.7904999999999998 35.6919463999999991   T   T   T
 23.1161999999999992  6.2324000000000002 39.1577432000000059   T   T   T
 24.6743000000000023  6.2324000000000002 34.9104432000000031   T   T   T
 23.1162000000000027  7.7904999999999998 48.4338464000000002   T   T   T
 23.1162000000000027  7.7904999999999998 43.4050432000000015   T   T   T
 24.6743000000000023  7.7904999999999998 47.6523432000000042   T   T   T
 23.1161999999999992  6.2324000000000002 44.1865464000000046   T   T   T
 27.7905000000000015  0.0000000000000000 25.5833724000000018   F   F   F
 27.7905000000000015  1.5581000000000000 21.3360724000000062   F   F   F
 26.2323999999999984  0.0000000000000000 19.5352172000000053   F   F   F
 27.7905000000000015  0.0000000000000000 32.2771171999999993   F   F   F
 26.2323999999999984  1.5581000000000000 17.0887724000000034   F   F   F
 26.2323999999999984  1.5581000000000000 23.7825172000000080   F   F   F
 27.7905000000000015  1.5581000000000000 28.0298172000000037   F   F   F
 26.2323999999999984  0.0000000000000000 29.8306724000000045   F   F   F
 27.7905000000000015  0.0000000000000000 22.9500464000000051   F   F   F
 27.7905000000000015  1.5581000000000000 18.7027464000000094   F   F   F
 26.2323999999999984  0.0000000000000000 22.1685432000000020   F   F   F
 27.7905000000000015  0.0000000000000000 17.9212432000000064   F   F   F
 26.2323999999999984  1.5581000000000000 31.4446464000000034   F   F   F
 26.2323999999999984  1.5581000000000000 26.4158432000000047   F   F   F
 27.7905000000000015  1.5581000000000000 30.6631432000000004   F   F   F
 26.2323999999999984  0.0000000000000000 27.1973464000000078   F   F   F
 27.7905000000000015  0.0000000000000000 42.5725724000000056   T   T   T
 27.7905000000000015  1.5581000000000000 38.3252724000000029   T   T   T
 26.2323999999999984  0.0000000000000000 36.5244172000000020   T   T   T
 27.7905000000000015  0.0000000000000000 49.2663172000000031   T   T   T
 26.2323999999999984  1.5581000000000000 34.0779724000000002   T   T   T
 26.2323999999999984  1.5581000000000000 40.7717172000000048   T   T   T
 27.7905000000000015  1.5581000000000000 45.0190172000000004   T   T   T
 26.2323999999999984  0.0000000000000000 46.8198724000000013   T   T   T
 27.7905000000000015  0.0000000000000000 39.9392464000000018   T   T   T
 27.7905000000000015  1.5581000000000000 35.6919463999999991   T   T   T
 26.2323999999999984  0.0000000000000000 39.1577432000000059   T   T   T
 27.7905000000000015  0.0000000000000000 34.9104432000000031   T   T   T
 26.2323999999999984  1.5581000000000000 48.4338464000000002   T   T   T
 26.2323999999999984  1.5581000000000000 43.4050432000000015   T   T   T
 27.7905000000000015  1.5581000000000000 47.6523432000000042   T   T   T
 26.2323999999999984  0.0000000000000000 44.1865464000000046   T   T   T
 27.7905000000000015  3.1162000000000001 25.5833724000000018   F   F   F
 27.7905000000000015  4.6743000000000006 21.3360724000000062   F   F   F
 26.2324000000000019  3.1162000000000001 19.5352172000000053   F   F   F
 27.7905000000000015  3.1162000000000001 32.2771171999999993   F   F   F
 26.2324000000000019  4.6743000000000006 17.0887724000000034   F   F   F
 26.2324000000000019  4.6743000000000006 23.7825172000000080   F   F   F
 27.7905000000000015  4.6743000000000006 28.0298172000000037   F   F   F
 26.2324000000000019  3.1162000000000001 29.8306724000000045   F   F   F
 27.7905000000000015  3.1162000000000001 22.9500464000000051   F   F   F
 27.7905000000000015  4.6743000000000006 18.7027464000000094   F   F   F
 26.2324000000000019  3.1162000000000001 22.1685432000000091   F   F   F
 27.7905000000000015  3.1162000000000001 17.9212432000000064   F   F   F
 26.2324000000000019  4.6743000000000006 31.4446464000000034   F   F   F
 26.2324000000000019  4.6743000000000006 26.4158432000000047   F   F   F
 27.7905000000000015  4.6743000000000006 30.6631432000000004   F   F   F
 26.2324000000000019  3.1162000000000001 27.1973464000000078   F   F   F
 27.7905000000000015  3.1162000000000001 42.5725724000000056   T   T   T
 27.7905000000000015  4.6743000000000006 38.3252724000000029   T   T   T
 26.2324000000000019  3.1162000000000001 36.5244172000000020   T   T   T
 27.7905000000000015  3.1162000000000001 49.2663172000000031   T   T   T
 26.2324000000000019  4.6743000000000006 34.0779724000000002   T   T   T
 26.2324000000000019  4.6743000000000006 40.7717172000000048   T   T   T
 27.7905000000000015  4.6743000000000006 45.0190172000000004   T   T   T
 26.2324000000000019  3.1162000000000001 46.8198724000000013   T   T   T
 27.7905000000000015  3.1162000000000001 39.9392464000000018   T   T   T
 27.7905000000000015  4.6743000000000006 35.6919463999999991   T   T   T
 26.2324000000000019  3.1162000000000001 39.1577432000000059   T   T   T
 27.7905000000000015  3.1162000000000001 34.9104432000000031   T   T   T
 26.2324000000000019  4.6743000000000006 48.4338464000000002   T   T   T
 26.2324000000000019  4.6743000000000006 43.4050432000000015   T   T   T
 27.7905000000000015  4.6743000000000006 47.6523432000000042   T   T   T
 26.2324000000000019  3.1162000000000001 44.1865464000000046   T   T   T
 27.7905000000000015  6.2324000000000002 25.5833724000000018   F   F   F
 27.7905000000000015  7.7904999999999998 21.3360724000000062   F   F   F
 26.2324000000000019  6.2324000000000002 19.5352172000000053   F   F   F
 27.7905000000000015  6.2324000000000002 32.2771171999999993   F   F   F
 26.2324000000000019  7.7904999999999998 17.0887724000000034   F   F   F
 26.2324000000000019  7.7904999999999998 23.7825172000000080   F   F   F
 27.7905000000000015  7.7904999999999998 28.0298172000000037   F   F   F
 26.2324000000000019  6.2324000000000002 29.8306724000000045   F   F   F
 27.7905000000000015  6.2324000000000002 22.9500464000000051   F   F   F
 27.7905000000000015  7.7904999999999998 18.7027464000000094   F   F   F
 26.2324000000000019  6.2324000000000002 22.1685432000000091   F   F   F
 27.7905000000000015  6.2324000000000002 17.9212432000000064   F   F   F
 26.2324000000000019  7.7904999999999998 31.4446464000000034   F   F   F
 26.2324000000000019  7.7904999999999998 26.4158432000000047   F   F   F
 27.7905000000000015  7.7904999999999998 30.6631432000000004   F   F   F
 26.2324000000000019  6.2324000000000002 27.1973464000000078   F   F   F
 27.7905000000000015  6.2324000000000002 42.5725724000000056   T   T   T
 27.7905000000000015  7.7904999999999998 38.3252724000000029   T   T   T
 26.2324000000000019  6.2324000000000002 36.5244172000000020   T   T   T
 27.7905000000000015  6.2324000000000002 49.2663172000000031   T   T   T
 26.2324000000000019  7.7904999999999998 34.0779724000000002   T   T   T
 26.2324000000000019  7.7904999999999998 40.7717172000000048   T   T   T
 27.7905000000000015  7.7904999999999998 45.0190172000000004   T   T   T
 26.2324000000000019  6.2324000000000002 46.8198724000000013   T   T   T
 27.7905000000000015  6.2324000000000002 39.9392464000000018   T   T   T
 27.7905000000000015  7.7904999999999998 35.6919463999999991   T   T   T
 26.2324000000000019  6.2324000000000002 39.1577432000000059   T   T   T
 27.7905000000000015  6.2324000000000002 34.9104432000000031   T   T   T
 26.2324000000000019  7.7904999999999998 48.4338464000000002   T   T   T
 26.2324000000000019  7.7904999999999998 43.4050432000000015   T   T   T
 27.7905000000000015  7.7904999999999998 47.6523432000000042   T   T   T
 26.2324000000000019  6.2324000000000002 44.1865464000000046   T   T   T
 30.9067000000000007  0.0000000000000000 25.5833724000000018   F   F   F
 30.9067000000000007  1.5581000000000000 21.3360724000000062   F   F   F
 29.3486000000000011  0.0000000000000000 19.5352172000000053   F   F   F
 30.9067000000000007  0.0000000000000000 32.2771171999999993   F   F   F
 29.3486000000000011  1.5581000000000000 17.0887724000000034   F   F   F
 29.3486000000000011  1.5581000000000000 23.7825172000000080   F   F   F
 30.9067000000000007  1.5581000000000000 28.0298172000000037   F   F   F
 29.3486000000000011  0.0000000000000000 29.8306724000000045   F   F   F
 30.9067000000000007  0.0000000000000000 22.9500464000000051   F   F   F
 30.9067000000000007  1.5581000000000000 18.7027464000000094   F   F   F
 29.3486000000000011  0.0000000000000000 22.1685432000000091   F   F   F
 30.9067000000000007  0.0000000000000000 17.9212432000000064   F   F   F
 29.3486000000000011  1.5581000000000000 31.4446464000000034   F   F   F
 29.3486000000000011  1.5581000000000000 26.4158432000000047   F   F   F
 30.9067000000000007  1.5581000000000000 30.6631432000000004   F   F   F
 29.3486000000000011  0.0000000000000000 27.1973464000000078   F   F   F
 30.9067000000000007  0.0000000000000000 42.5725724000000056   T   T   T
 30.9067000000000007  1.5581000000000000 38.3252724000000029   T   T   T
 29.3486000000000011  0.0000000000000000 36.5244172000000020   T   T   T
 30.9067000000000007  0.0000000000000000 49.2663172000000031   T   T   T
 29.3486000000000011  1.5581000000000000 34.0779724000000002   T   T   T
 29.3486000000000011  1.5581000000000000 40.7717172000000048   T   T   T
 30.9067000000000007  1.5581000000000000 45.0190172000000004   T   T   T
 29.3486000000000011  0.0000000000000000 46.8198724000000013   T   T   T
 30.9067000000000007  0.0000000000000000 39.9392464000000018   T   T   T
 30.9067000000000007  1.5581000000000000 35.6919463999999991   T   T   T
 29.3486000000000011  0.0000000000000000 39.1577432000000059   T   T   T
 30.9067000000000007  0.0000000000000000 34.9104432000000031   T   T   T
 29.3486000000000011  1.5581000000000000 48.4338464000000002   T   T   T
 29.3486000000000011  1.5581000000000000 43.4050432000000015   T   T   T
 30.9067000000000007  1.5581000000000000 47.6523432000000042   T   T   T
 29.3486000000000011  0.0000000000000000 44.1865464000000046   T   T   T
 30.9067000000000007  3.1162000000000001 25.5833724000000018   F   F   F
 30.9067000000000007  4.6743000000000006 21.3360724000000062   F   F   F
 29.3486000000000011  3.1162000000000001 19.5352172000000053   F   F   F
 30.9067000000000007  3.1162000000000001 32.2771171999999993   F   F   F
 29.3486000000000011  4.6743000000000006 17.0887724000000034   F   F   F
 29.3486000000000011  4.6743000000000006 23.7825172000000080   F   F   F
 30.9067000000000007  4.6743000000000006 28.0298172000000037   F   F   F
 29.3486000000000011  3.1162000000000001 29.8306724000000045   F   F   F
 30.9067000000000007  3.1162000000000001 22.9500464000000051   F   F   F
 30.9067000000000007  4.6743000000000006 18.7027464000000094   F   F   F
 29.3486000000000011  3.1162000000000001 22.1685432000000091   F   F   F
 30.9067000000000007  3.1162000000000001 17.9212432000000064   F   F   F
 29.3486000000000011  4.6743000000000006 31.4446464000000034   F   F   F
 29.3486000000000011  4.6743000000000006 26.4158432000000047   F   F   F
 30.9067000000000007  4.6743000000000006 30.6631432000000004   F   F   F
 29.3486000000000011  3.1162000000000001 27.1973464000000078   F   F   F
 30.9067000000000007  3.1162000000000001 42.5725724000000056   T   T   T
 30.9067000000000007  4.6743000000000006 38.3252724000000029   T   T   T
 29.3486000000000011  3.1162000000000001 36.5244172000000020   T   T   T
 30.9067000000000007  3.1162000000000001 49.2663172000000031   T   T   T
 29.3486000000000011  4.6743000000000006 34.0779724000000002   T   T   T
 29.3486000000000011  4.6743000000000006 40.7717172000000048   T   T   T
 30.9067000000000007  4.6743000000000006 45.0190172000000004   T   T   T
 29.3486000000000011  3.1162000000000001 46.8198724000000013   T   T   T
 30.9067000000000007  3.1162000000000001 39.9392464000000018   T   T   T
 30.9067000000000007  4.6743000000000006 35.6919463999999991   T   T   T
 29.3486000000000011  3.1162000000000001 39.1577432000000059   T   T   T
 30.9067000000000007  3.1162000000000001 34.9104432000000031   T   T   T
 29.3486000000000011  4.6743000000000006 48.4338464000000002   T   T   T
 29.3486000000000011  4.6743000000000006 43.4050432000000015   T   T   T
 30.9067000000000007  4.6743000000000006 47.6523432000000042   T   T   T
 29.3486000000000011  3.1162000000000001 44.1865464000000046   T   T   T
 30.9067000000000007  6.2324000000000002 25.5833724000000089   F   F   F
 30.9067000000000007  7.7904999999999998 21.3360724000000062   F   F   F
 29.3486000000000047  6.2324000000000002 19.5352172000000053   F   F   F
 30.9067000000000007  6.2324000000000002 32.2771171999999993   F   F   F
 29.3486000000000047  7.7904999999999998 17.0887724000000105   F   F   F
 29.3486000000000047  7.7904999999999998 23.7825172000000080   F   F   F
 30.9067000000000007  7.7904999999999998 28.0298172000000037   F   F   F
 29.3486000000000047  6.2324000000000002 29.8306724000000045   F   F   F
 30.9067000000000007  6.2324000000000002 22.9500464000000051   F   F   F
 30.9067000000000007  7.7904999999999998 18.7027464000000094   F   F   F
 29.3486000000000047  6.2324000000000002 22.1685432000000091   F   F   F
 30.9067000000000007  6.2324000000000002 17.9212432000000064   F   F   F
 29.3486000000000047  7.7904999999999998 31.4446464000000034   F   F   F
 29.3486000000000047  7.7904999999999998 26.4158432000000047   F   F   F
 30.9067000000000007  7.7904999999999998 30.6631432000000075   F   F   F
 29.3486000000000047  6.2324000000000002 27.1973464000000078   F   F   F
 30.9067000000000007  6.2324000000000002 42.5725724000000056   T   T   T
 30.9067000000000007  7.7904999999999998 38.3252724000000029   T   T   T
 29.3486000000000047  6.2324000000000002 36.5244172000000020   T   T   T
 30.9067000000000007  6.2324000000000002 49.2663172000000031   T   T   T
 29.3486000000000047  7.7904999999999998 34.0779724000000002   T   T   T
 29.3486000000000047  7.7904999999999998 40.7717172000000048   T   T   T
 30.9067000000000007  7.7904999999999998 45.0190172000000004   T   T   T
 29.3486000000000047  6.2324000000000002 46.8198724000000013   T   T   T
 30.9067000000000007  6.2324000000000002 39.9392464000000018   T   T   T
 30.9067000000000007  7.7904999999999998 35.6919463999999991   T   T   T
 29.3486000000000047  6.2324000000000002 39.1577432000000059   T   T   T
 30.9067000000000007  6.2324000000000002 34.9104432000000031   T   T   T
 29.3486000000000047  7.7904999999999998 48.4338464000000002   T   T   T
 29.3486000000000047  7.7904999999999998 43.4050432000000015   T   T   T
 30.9067000000000007  7.7904999999999998 47.6523432000000042   T   T   T
 29.3486000000000047  6.2324000000000002 44.1865464000000046   T   T   T
 34.0228999999999999  0.0000000000000000 25.5833724000000018   F   F   F
 34.0228999999999999  1.5581000000000000 21.3360724000000062   F   F   F
 32.4647999999999968  0.0000000000000000 19.5352172000000053   F   F   F
 34.0228999999999999  0.0000000000000000 32.2771171999999993   F   F   F
 32.4647999999999968  1.5581000000000000 17.0887724000000034   F   F   F
 32.4647999999999968  1.5581000000000000 23.7825172000000080   F   F   F
 34.0228999999999999  1.5581000000000000 28.0298172000000037   F   F   F
 32.4647999999999968  0.0000000000000000 29.8306724000000045   F   F   F
 34.0228999999999999  0.0000000000000000 22.9500464000000051   F   F   F
 34.0228999999999999  1.5581000000000000 18.7027464000000094   F   F   F
 32.4647999999999968  0.0000000000000000 22.1685432000000091   F   F   F
 34.0228999999999999  0.0000000000000000 17.9212432000000064   F   F   F
 32.4647999999999968  1.5581000000000000 31.4446464000000034   F   F   F
 32.4647999999999968  1.5581000000000000 26.4158432000000047   F   F   F
 34.0228999999999999  1.5581000000000000 30.6631432000000004   F   F   F
 32.4647999999999968  0.0000000000000000 27.1973464000000078   F   F   F
 34.0228999999999999  0.0000000000000000 42.5725724000000056   T   T   T
 34.0228999999999999  1.5581000000000000 38.3252724000000029   T   T   T
 32.4647999999999968  0.0000000000000000 36.5244172000000020   T   T   T
 34.0228999999999999  0.0000000000000000 49.2663172000000031   T   T   T
 32.4647999999999968  1.5581000000000000 34.0779724000000002   T   T   T
 32.4647999999999968  1.5581000000000000 40.7717172000000048   T   T   T
 34.0228999999999999  1.5581000000000000 45.0190172000000004   T   T   T
 32.4647999999999968  0.0000000000000000 46.8198724000000013   T   T   T
 34.0228999999999999  0.0000000000000000 39.9392464000000018   T   T   T
 34.0228999999999999  1.5581000000000000 35.6919463999999991   T   T   T
 32.4647999999999968  0.0000000000000000 39.1577432000000059   T   T   T
 34.0228999999999999  0.0000000000000000 34.9104432000000031   T   T   T
 32.4647999999999968  1.5581000000000000 48.4338464000000002   T   T   T
 32.4647999999999968  1.5581000000000000 43.4050432000000015   T   T   T
 34.0228999999999999  1.5581000000000000 47.6523432000000042   T   T   T
 32.4647999999999968  0.0000000000000000 44.1865464000000046   T   T   T
 34.0228999999999999  3.1162000000000001 25.5833724000000089   F   F   F
 34.0228999999999999  4.6743000000000006 21.3360724000000062   F   F   F
 32.4647999999999968  3.1162000000000001 19.5352172000000053   F   F   F
 34.0228999999999999  3.1162000000000001 32.2771171999999993   F   F   F
 32.4647999999999968  4.6743000000000006 17.0887724000000105   F   F   F
 32.4647999999999968  4.6743000000000006 23.7825172000000080   F   F   F
 34.0228999999999999  4.6743000000000006 28.0298172000000037   F   F   F
 32.4647999999999968  3.1162000000000001 29.8306724000000045   F   F   F
 34.0228999999999999  3.1162000000000001 22.9500464000000051   F   F   F
 34.0228999999999999  4.6743000000000006 18.7027464000000094   F   F   F
 32.4647999999999968  3.1162000000000001 22.1685432000000091   F   F   F
 34.0228999999999999  3.1162000000000001 17.9212432000000064   F   F   F
 32.4647999999999968  4.6743000000000006 31.4446464000000034   F   F   F
 32.4647999999999968  4.6743000000000006 26.4158432000000047   F   F   F
 34.0228999999999999  4.6743000000000006 30.6631432000000075   F   F   F
 32.4647999999999968  3.1162000000000001 27.1973464000000078   F   F   F
 34.0228999999999999  3.1162000000000001 42.5725724000000056   T   T   T
 34.0228999999999999  4.6743000000000006 38.3252724000000029   T   T   T
 32.4647999999999968  3.1162000000000001 36.5244172000000020   T   T   T
 34.0228999999999999  3.1162000000000001 49.2663172000000031   T   T   T
 32.4647999999999968  4.6743000000000006 34.0779724000000002   T   T   T
 32.4647999999999968  4.6743000000000006 40.7717172000000048   T   T   T
 34.0228999999999999  4.6743000000000006 45.0190172000000004   T   T   T
 32.4647999999999968  3.1162000000000001 46.8198724000000013   T   T   T
 34.0228999999999999  3.1162000000000001 39.9392464000000018   T   T   T
 34.0228999999999999  4.6743000000000006 35.6919463999999991   T   T   T
 32.4647999999999968  3.1162000000000001 39.1577432000000059   T   T   T
 34.0228999999999999  3.1162000000000001 34.9104432000000031   T   T   T
 32.4647999999999968  4.6743000000000006 48.4338464000000002   T   T   T
 32.4647999999999968  4.6743000000000006 43.4050432000000015   T   T   T
 34.0228999999999999  4.6743000000000006 47.6523432000000042   T   T   T
 32.4647999999999968  3.1162000000000001 44.1865464000000046   T   T   T
 34.0228999999999999  6.2324000000000002 25.5833724000000089   F   F   F
 34.0228999999999999  7.7904999999999998 21.3360724000000062   F   F   F
 32.4648000000000039  6.2324000000000002 19.5352172000000053   F   F   F
 34.0228999999999999  6.2324000000000002 32.2771171999999993   F   F   F
 32.4648000000000039  7.7904999999999998 17.0887724000000105   F   F   F
 32.4648000000000039  7.7904999999999998 23.7825172000000080   F   F   F
 34.0228999999999999  7.7904999999999998 28.0298172000000037   F   F   F
 32.4648000000000039  6.2324000000000002 29.8306724000000045   F   F   F
 34.0228999999999999  6.2324000000000002 22.9500464000000051   F   F   F
 34.0228999999999999  7.7904999999999998 18.7027464000000094   F   F   F
 32.4648000000000039  6.2324000000000002 22.1685432000000091   F   F   F
 34.0228999999999999  6.2324000000000002 17.9212432000000064   F   F   F
 32.4648000000000039  7.7904999999999998 31.4446464000000034   F   F   F
 32.4648000000000039  7.7904999999999998 26.4158432000000047   F   F   F
 34.0228999999999999  7.7904999999999998 30.6631432000000075   F   F   F
 32.4648000000000039  6.2324000000000002 27.1973464000000078   F   F   F
 34.0228999999999999  6.2324000000000002 42.5725724000000056   T   T   T
 34.0228999999999999  7.7904999999999998 38.3252724000000029   T   T   T
 32.4648000000000039  6.2324000000000002 36.5244172000000020   T   T   T
 34.0228999999999999  6.2324000000000002 49.2663172000000031   T   T   T
 32.4648000000000039  7.7904999999999998 34.0779724000000002   T   T   T
 32.4648000000000039  7.7904999999999998 40.7717172000000048   T   T   T
 34.0228999999999999  7.7904999999999998 45.0190172000000004   T   T   T
 32.4648000000000039  6.2324000000000002 46.8198724000000013   T   T   T
 34.0228999999999999  6.2324000000000002 39.9392464000000018   T   T   T
 34.0228999999999999  7.7904999999999998 35.6919463999999991   T   T   T
 32.4648000000000039  6.2324000000000002 39.1577432000000059   T   T   T
 34.0228999999999999  6.2324000000000002 34.9104432000000031   T   T   T
 32.4648000000000039  7.7904999999999998 48.4338464000000002   T   T   T
 32.4648000000000039  7.7904999999999998 43.4050432000000015   T   T   T
 34.0228999999999999  7.7904999999999998 47.6523432000000042   T   T   T
 32.4648000000000039  6.2324000000000002 44.1865464000000046   T   T   T
 37.1390999999999991  0.0000000000000000 25.5833724000000089   F   F   F
 37.1390999999999991  1.5581000000000000 21.3360724000000062   F   F   F
 35.5810000000000031  0.0000000000000000 19.5352172000000053   F   F   F
 37.1390999999999991  0.0000000000000000 32.2771171999999993   F   F   F
 35.5810000000000031  1.5581000000000000 17.0887724000000105   F   F   F
 35.5810000000000031  1.5581000000000000 23.7825172000000080   F   F   F
 37.1390999999999991  1.5581000000000000 28.0298172000000037   F   F   F
 35.5810000000000031  0.0000000000000000 29.8306724000000045   F   F   F
 37.1390999999999991  0.0000000000000000 22.9500464000000051   F   F   F
 37.1390999999999991  1.5581000000000000 18.7027464000000094   F   F   F
 35.5810000000000031  0.0000000000000000 22.1685432000000091   F   F   F
 37.1390999999999991  0.0000000000000000 17.9212432000000064   F   F   F
 35.5810000000000031  1.5581000000000000 31.4446464000000034   F   F   F
 35.5810000000000031  1.5581000000000000 26.4158432000000047   F   F   F
 37.1390999999999991  1.5581000000000000 30.6631432000000075   F   F   F
 35.5810000000000031  0.0000000000000000 27.1973464000000078   F   F   F
 37.1390999999999991  0.0000000000000000 42.5725724000000056   T   T   T
 37.1390999999999991  1.5581000000000000 38.3252724000000029   T   T   T
 35.5810000000000031  0.0000000000000000 36.5244172000000020   T   T   T
 37.1390999999999991  0.0000000000000000 49.2663172000000031   T   T   T
 35.5810000000000031  1.5581000000000000 34.0779724000000002   T   T   T
 35.5810000000000031  1.5581000000000000 40.7717172000000048   T   T   T
 37.1390999999999991  1.5581000000000000 45.0190172000000004   T   T   T
 35.5810000000000031  0.0000000000000000 46.8198724000000013   T   T   T
 37.1390999999999991  0.0000000000000000 39.9392464000000018   T   T   T
 37.1390999999999991  1.5581000000000000 35.6919463999999991   T   T   T
 35.5810000000000031  0.0000000000000000 39.1577432000000059   T   T   T
 37.1390999999999991  0.0000000000000000 34.9104432000000031   T   T   T
 35.5810000000000031  1.5581000000000000 48.4338464000000002   T   T   T
 35.5810000000000031  1.5581000000000000 43.4050432000000015   T   T   T
 37.1390999999999991  1.5581000000000000 47.6523432000000042   T   T   T
 35.5810000000000031  0.0000000000000000 44.1865464000000046   T   T   T
 37.1390999999999991  3.1162000000000001 25.5833724000000089   F   F   F
 37.1390999999999991  4.6743000000000006 21.3360724000000062   F   F   F
 35.5810000000000031  3.1162000000000001 19.5352172000000053   F   F   F
 37.1390999999999991  3.1162000000000001 32.2771171999999993   F   F   F
 35.5810000000000031  4.6743000000000006 17.0887724000000105   F   F   F
 35.5810000000000031  4.6743000000000006 23.7825172000000080   F   F   F
 37.1390999999999991  4.6743000000000006 28.0298172000000037   F   F   F
 35.5810000000000031  3.1162000000000001 29.8306724000000045   F   F   F
 37.1390999999999991  3.1162000000000001 22.9500464000000051   F   F   F
 37.1390999999999991  4.6743000000000006 18.7027464000000094   F   F   F
 35.5810000000000031  3.1162000000000001 22.1685432000000091   F   F   F
 37.1390999999999991  3.1162000000000001 17.9212432000000064   F   F   F
 35.5810000000000031  4.6743000000000006 31.4446464000000034   F   F   F
 35.5810000000000031  4.6743000000000006 26.4158432000000047   F   F   F
 37.1390999999999991  4.6743000000000006 30.6631432000000075   F   F   F
 35.5810000000000031  3.1162000000000001 27.1973464000000078   F   F   F
 37.1390999999999991  3.1162000000000001 42.5725724000000056   T   T   T
 37.1390999999999991  4.6743000000000006 38.3252724000000029   T   T   T
 35.5810000000000031  3.1162000000000001 36.5244172000000020   T   T   T
 37.1390999999999991  3.1162000000000001 49.2663172000000031   T   T   T
 35.5810000000000031  4.6743000000000006 34.0779724000000002   T   T   T
 35.5810000000000031  4.6743000000000006 40.7717172000000048   T   T   T
 37.1390999999999991  4.6743000000000006 45.0190172000000004   T   T   T
 35.5810000000000031  3.1162000000000001 46.8198724000000013   T   T   T
 37.1390999999999991  3.1162000000000001 39.9392464000000018   T   T   T
 37.1390999999999991  4.6743000000000006 35.6919463999999991   T   T   T
 35.5810000000000031  3.1162000000000001 39.1577432000000059   T   T   T
 37.1390999999999991  3.1162000000000001 34.9104432000000031   T   T   T
 35.5810000000000031  4.6743000000000006 48.4338464000000002   T   T   T
 35.5810000000000031  4.6743000000000006 43.4050432000000015   T   T   T
 37.1390999999999991  4.6743000000000006 47.6523432000000042   T   T   T
 35.5810000000000031  3.1162000000000001 44.1865464000000046   T   T   T
 37.1390999999999991  6.2324000000000002 25.5833724000000089   F   F   F
 37.1390999999999991  7.7904999999999998 21.3360724000000062   F   F   F
 35.5810000000000031  6.2324000000000002 19.5352172000000053   F   F   F
 37.1390999999999991  6.2324000000000002 32.2771171999999993   F   F   F
 35.5810000000000031  7.7904999999999998 17.0887724000000105   F   F   F
 35.5810000000000031  7.7904999999999998 23.7825172000000080   F   F   F
 37.1390999999999991  7.7904999999999998 28.0298172000000037   F   F   F
 35.5810000000000031  6.2324000000000002 29.8306724000000045   F   F   F
 37.1390999999999991  6.2324000000000002 22.9500464000000051   F   F   F
 37.1390999999999991  7.7904999999999998 18.7027464000000094   F   F   F
 35.5810000000000031  6.2324000000000002 22.1685432000000091   F   F   F
 37.1390999999999991  6.2324000000000002 17.9212432000000064   F   F   F
 35.5810000000000031  7.7904999999999998 31.4446464000000034   F   F   F
 35.5810000000000031  7.7904999999999998 26.4158432000000047   F   F   F
 37.1390999999999991  7.7904999999999998 30.6631432000000075   F   F   F
 35.5810000000000031  6.2324000000000002 27.1973464000000078   F   F   F
 37.1390999999999991  6.2324000000000002 42.5725724000000056   T   T   T
 37.1390999999999991  7.7904999999999998 38.3252724000000029   T   T   T
 35.5810000000000031  6.2324000000000002 36.5244172000000020   T   T   T
 37.1390999999999991  6.2324000000000002 49.2663172000000031   T   T   T
 35.5810000000000031  7.7904999999999998 34.0779724000000002   T   T   T
 35.5810000000000031  7.7904999999999998 40.7717172000000048   T   T   T
 37.1390999999999991  7.7904999999999998 45.0190172000000004   T   T   T
 35.5810000000000031  6.2324000000000002 46.8198724000000013   T   T   T
 37.1390999999999991  6.2324000000000002 39.9392464000000018   T   T   T
 37.1390999999999991  7.7904999999999998 35.6919463999999991   T   T   T
 35.5810000000000031  6.2324000000000002 39.1577432000000059   T   T   T
 37.1390999999999991  6.2324000000000002 34.9104432000000031   T   T   T
 35.5810000000000031  7.7904999999999998 48.4338464000000002   T   T   T
 35.5810000000000031  7.7904999999999998 43.4050432000000015   T   T   T
 37.1390999999999991  7.7904999999999998 47.6523432000000042   T   T   T
 35.5810000000000031  6.2324000000000002 44.1865464000000046   T   T   T
 40.2553000000000054  0.0000000000000000 25.5833724000000089   F   F   F
 40.2553000000000054  1.5581000000000000 21.3360724000000062   F   F   F
 38.6972000000000023  0.0000000000000000 19.5352172000000053   F   F   F
 40.2553000000000054  0.0000000000000000 32.2771171999999993   F   F   F
 38.6972000000000023  1.5581000000000000 17.0887724000000105   F   F   F
 38.6972000000000023  1.5581000000000000 23.7825172000000080   F   F   F
 40.2553000000000054  1.5581000000000000 28.0298172000000037   F   F   F
 38.6972000000000023  0.0000000000000000 29.8306724000000045   F   F   F
 40.2553000000000054  0.0000000000000000 22.9500464000000051   F   F   F
 40.2553000000000054  1.5581000000000000 18.7027464000000094   F   F   F
 38.6972000000000023  0.0000000000000000 22.1685432000000091   F   F   F
 40.2553000000000054  0.0000000000000000 17.9212432000000064   F   F   F
 38.6972000000000023  1.5581000000000000 31.4446464000000034   F   F   F
 38.6972000000000023  1.5581000000000000 26.4158432000000047   F   F   F
 40.2553000000000054  1.5581000000000000 30.6631432000000075   F   F   F
 38.6972000000000023  0.0000000000000000 27.1973464000000078   F   F   F
 40.2553000000000054  0.0000000000000000 42.5725724000000056   T   T   T
 40.2553000000000054  1.5581000000000000 38.3252724000000029   T   T   T
 38.6972000000000023  0.0000000000000000 36.5244172000000020   T   T   T
 40.2553000000000054  0.0000000000000000 49.2663172000000031   T   T   T
 38.6972000000000023  1.5581000000000000 34.0779724000000002   T   T   T
 38.6972000000000023  1.5581000000000000 40.7717172000000048   T   T   T
 40.2553000000000054  1.5581000000000000 45.0190172000000004   T   T   T
 38.6972000000000023  0.0000000000000000 46.8198724000000013   T   T   T
 40.2553000000000054  0.0000000000000000 39.9392464000000018   T   T   T
 40.2553000000000054  1.5581000000000000 35.6919463999999991   T   T   T
 38.6972000000000023  0.0000000000000000 39.1577432000000059   T   T   T
 40.2553000000000054  0.0000000000000000 34.9104432000000031   T   T   T
 38.6972000000000023  1.5581000000000000 48.4338464000000002   T   T   T
 38.6972000000000023  1.5581000000000000 43.4050432000000015   T   T   T
 40.2553000000000054  1.5581000000000000 47.6523432000000042   T   T   T
 38.6972000000000023  0.0000000000000000 44.1865464000000046   T   T   T
 40.2553000000000054  3.1162000000000001 25.5833724000000089   F   F   F
 40.2553000000000054  4.6743000000000006 21.3360724000000062   F   F   F
 38.6972000000000023  3.1162000000000001 19.5352172000000053   F   F   F
 40.2553000000000054  3.1162000000000001 32.2771171999999993   F   F   F
 38.6972000000000023  4.6743000000000006 17.0887724000000105   F   F   F
 38.6972000000000023  4.6743000000000006 23.7825172000000080   F   F   F
 40.2553000000000054  4.6743000000000006 28.0298172000000037   F   F   F
 38.6972000000000023  3.1162000000000001 29.8306724000000045   F   F   F
 40.2553000000000054  3.1162000000000001 22.9500464000000051   F   F   F
 40.2553000000000054  4.6743000000000006 18.7027464000000094   F   F   F
 38.6972000000000023  3.1162000000000001 22.1685432000000091   F   F   F
 40.2553000000000054  3.1162000000000001 17.9212432000000064   F   F   F
 38.6972000000000023  4.6743000000000006 31.4446464000000034   F   F   F
 38.6972000000000023  4.6743000000000006 26.4158432000000047   F   F   F
 40.2553000000000054  4.6743000000000006 30.6631432000000075   F   F   F
 38.6972000000000023  3.1162000000000001 27.1973464000000078   F   F   F
 40.2553000000000054  3.1162000000000001 42.5725724000000056   T   T   T
 40.2553000000000054  4.6743000000000006 38.3252724000000029   T   T   T
 38.6972000000000023  3.1162000000000001 36.5244172000000020   T   T   T
 40.2553000000000054  3.1162000000000001 49.2663172000000031   T   T   T
 38.6972000000000023  4.6743000000000006 34.0779724000000002   T   T   T
 38.6972000000000023  4.6743000000000006 40.7717172000000048   T   T   T
 40.2553000000000054  4.6743000000000006 45.0190172000000004   T   T   T
 38.6972000000000023  3.1162000000000001 46.8198724000000013   T   T   T
 40.2553000000000054  3.1162000000000001 39.9392464000000018   T   T   T
 40.2553000000000054  4.6743000000000006 35.6919463999999991   T   T   T
 38.6972000000000023  3.1162000000000001 39.1577432000000059   T   T   T
 40.2553000000000054  3.1162000000000001 34.9104432000000031   T   T   T
 38.6972000000000023  4.6743000000000006 48.4338464000000002   T   T   T
 38.6972000000000023  4.6743000000000006 43.4050432000000015   T   T   T
 40.2553000000000054  4.6743000000000006 47.6523432000000042   T   T   T
 38.6972000000000023  3.1162000000000001 44.1865464000000046   T   T   T
 40.2553000000000054  6.2324000000000002 25.5833724000000089   F   F   F
 40.2553000000000054  7.7904999999999998 21.3360724000000062   F   F   F
 38.6972000000000023  6.2324000000000002 19.5352172000000053   F   F   F
 40.2553000000000054  6.2324000000000002 32.2771171999999993   F   F   F
 38.6972000000000023  7.7904999999999998 17.0887724000000105   F   F   F
 38.6972000000000023  7.7904999999999998 23.7825172000000080   F   F   F
 40.2553000000000054  7.7904999999999998 28.0298172000000037   F   F   F
 38.6972000000000023  6.2324000000000002 29.8306724000000045   F   F   F
 40.2553000000000054  6.2324000000000002 22.9500464000000051   F   F   F
 40.2553000000000054  7.7904999999999998 18.7027464000000094   F   F   F
 38.6972000000000023  6.2324000000000002 22.1685432000000091   F   F   F
 40.2553000000000054  6.2324000000000002 17.9212432000000064   F   F   F
 38.6972000000000023  7.7904999999999998 31.4446464000000034   F   F   F
 38.6972000000000023  7.7904999999999998 26.4158432000000047   F   F   F
 40.2553000000000054  7.7904999999999998 30.6631432000000075   F   F   F
 38.6972000000000023  6.2324000000000002 27.1973464000000078   F   F   F
 40.2553000000000054  6.2324000000000002 42.5725724000000056   T   T   T
 40.2553000000000054  7.7904999999999998 38.3252724000000029   T   T   T
 38.6972000000000023  6.2324000000000002 36.5244172000000020   T   T   T
 40.2553000000000054  6.2324000000000002 49.2663172000000031   T   T   T
 38.6972000000000023  7.7904999999999998 34.0779724000000002   T   T   T
 38.6972000000000023  7.7904999999999998 40.7717172000000048   T   T   T
 40.2553000000000054  7.7904999999999998 45.0190172000000004   T   T   T
 38.6972000000000023  6.2324000000000002 46.8198724000000013   T   T   T
 40.2553000000000054  6.2324000000000002 39.9392464000000018   T   T   T
 40.2553000000000054  7.7904999999999998 35.6919463999999991   T   T   T
 38.6972000000000023  6.2324000000000002 39.1577432000000059   T   T   T
 40.2553000000000054  6.2324000000000002 34.9104432000000031   T   T   T
 38.6972000000000023  7.7904999999999998 48.4338464000000002   T   T   T
 38.6972000000000023  7.7904999999999998 43.4050432000000015   T   T   T
 40.2553000000000054  7.7904999999999998 47.6523432000000042   T   T   T
 38.6972000000000023  6.2324000000000002 44.1865464000000046   T   T   T
 43.3714999999999975  0.0000000000000000 25.5833724000000089   F   F   F
 43.3714999999999975  1.5581000000000000 21.3360724000000062   F   F   F
 41.8134000000000015  0.0000000000000000 19.5352172000000053   F   F   F
 43.3714999999999975  0.0000000000000000 32.2771171999999993   F   F   F
 41.8134000000000015  1.5581000000000000 17.0887724000000105   F   F   F
 41.8134000000000015  1.5581000000000000 23.7825172000000080   F   F   F
 43.3714999999999975  1.5581000000000000 28.0298172000000037   F   F   F
 41.8134000000000015  0.0000000000000000 29.8306724000000045   F   F   F
 43.3714999999999975  0.0000000000000000 22.9500464000000051   F   F   F
 43.3714999999999975  1.5581000000000000 18.7027464000000094   F   F   F
 41.8134000000000015  0.0000000000000000 22.1685432000000091   F   F   F
 43.3714999999999975  0.0000000000000000 17.9212432000000064   F   F   F
 41.8134000000000015  1.5581000000000000 31.4446464000000034   F   F   F
 41.8134000000000015  1.5581000000000000 26.4158432000000047   F   F   F
 43.3714999999999975  1.5581000000000000 30.6631432000000075   F   F   F
 41.8134000000000015  0.0000000000000000 27.1973464000000078   F   F   F
 43.3714999999999975  0.0000000000000000 42.5725724000000056   T   T   T
 43.3714999999999975  1.5581000000000000 38.3252724000000029   T   T   T
 41.8134000000000015  0.0000000000000000 36.5244172000000020   T   T   T
 43.3714999999999975  0.0000000000000000 49.2663172000000031   T   T   T
 41.8134000000000015  1.5581000000000000 34.0779724000000002   T   T   T
 41.8134000000000015  1.5581000000000000 40.7717172000000048   T   T   T
 43.3714999999999975  1.5581000000000000 45.0190172000000004   T   T   T
 41.8134000000000015  0.0000000000000000 46.8198724000000013   T   T   T
 43.3714999999999975  0.0000000000000000 39.9392464000000018   T   T   T
 43.3714999999999975  1.5581000000000000 35.6919463999999991   T   T   T
 41.8134000000000015  0.0000000000000000 39.1577432000000059   T   T   T
 43.3714999999999975  0.0000000000000000 34.9104432000000031   T   T   T
 41.8134000000000015  1.5581000000000000 48.4338464000000002   T   T   T
 41.8134000000000015  1.5581000000000000 43.4050432000000015   T   T   T
 43.3714999999999975  1.5581000000000000 47.6523432000000042   T   T   T
 41.8134000000000015  0.0000000000000000 44.1865464000000046   T   T   T
 43.3714999999999975  3.1162000000000001 25.5833724000000089   F   F   F
 43.3714999999999975  4.6743000000000006 21.3360724000000062   F   F   F
 41.8134000000000015  3.1162000000000001 19.5352172000000053   F   F   F
 43.3714999999999975  3.1162000000000001 32.2771171999999993   F   F   F
 41.8134000000000015  4.6743000000000006 17.0887724000000105   F   F   F
 41.8134000000000015  4.6743000000000006 23.7825172000000080   F   F   F
 43.3714999999999975  4.6743000000000006 28.0298172000000037   F   F   F
 41.8134000000000015  3.1162000000000001 29.8306724000000045   F   F   F
 43.3714999999999975  3.1162000000000001 22.9500464000000051   F   F   F
 43.3714999999999975  4.6743000000000006 18.7027464000000094   F   F   F
 41.8134000000000015  3.1162000000000001 22.1685432000000091   F   F   F
 43.3714999999999975  3.1162000000000001 17.9212432000000064   F   F   F
 41.8134000000000015  4.6743000000000006 31.4446464000000034   F   F   F
 41.8134000000000015  4.6743000000000006 26.4158432000000047   F   F   F
 43.3714999999999975  4.6743000000000006 30.6631432000000075   F   F   F
 41.8134000000000015  3.1162000000000001 27.1973464000000078   F   F   F
 43.3714999999999975  3.1162000000000001 42.5725724000000056   T   T   T
 43.3714999999999975  4.6743000000000006 38.3252724000000029   T   T   T
 41.8134000000000015  3.1162000000000001 36.5244172000000020   T   T   T
 43.3714999999999975  3.1162000000000001 49.2663172000000031   T   T   T
 41.8134000000000015  4.6743000000000006 34.0779724000000002   T   T   T
 41.8134000000000015  4.6743000000000006 40.7717172000000048   T   T   T
 43.3714999999999975  4.6743000000000006 45.0190172000000004   T   T   T
 41.8134000000000015  3.1162000000000001 46.8198724000000013   T   T   T
 43.3714999999999975  3.1162000000000001 39.9392464000000018   T   T   T
 43.3714999999999975  4.6743000000000006 35.6919463999999991   T   T   T
 41.8134000000000015  3.1162000000000001 39.1577432000000059   T   T   T
 43.3714999999999975  3.1162000000000001 34.9104432000000031   T   T   T
 41.8134000000000015  4.6743000000000006 48.4338464000000002   T   T   T
 41.8134000000000015  4.6743000000000006 43.4050432000000015   T   T   T
 43.3714999999999975  4.6743000000000006 47.6523432000000042   T   T   T
 41.8134000000000015  3.1162000000000001 44.1865464000000046   T   T   T
 43.3714999999999975  6.2324000000000002 25.5833724000000089   F   F   F
 43.3714999999999975  7.7904999999999998 21.3360724000000062   F   F   F
 41.8134000000000015  6.2324000000000002 19.5352172000000053   F   F   F
 43.3714999999999975  6.2324000000000002 32.2771171999999993   F   F   F
 41.8134000000000015  7.7904999999999998 17.0887724000000105   F   F   F
 41.8134000000000015  7.7904999999999998 23.7825172000000080   F   F   F
 43.3714999999999975  7.7904999999999998 28.0298172000000037   F   F   F
 41.8134000000000015  6.2324000000000002 29.8306724000000045   F   F   F
 43.3714999999999975  6.2324000000000002 22.9500464000000051   F   F   F
 43.3714999999999975  7.7904999999999998 18.7027464000000094   F   F   F
 41.8134000000000015  6.2324000000000002 22.1685432000000091   F   F   F
 43.3714999999999975  6.2324000000000002 17.9212432000000064   F   F   F
 41.8134000000000015  7.7904999999999998 31.4446464000000034   F   F   F
 41.8134000000000015  7.7904999999999998 26.4158432000000047   F   F   F
 43.3714999999999975  7.7904999999999998 30.6631432000000075   F   F   F
 41.8134000000000015  6.2324000000000002 27.1973464000000078   F   F   F
 43.3714999999999975  6.2324000000000002 42.5725724000000056   T   T   T
 43.3714999999999975  7.7904999999999998 38.3252724000000029   T   T   T
 41.8134000000000015  6.2324000000000002 36.5244172000000020   T   T   T
 43.3714999999999975  6.2324000000000002 49.2663172000000031   T   T   T
 41.8134000000000015  7.7904999999999998 34.0779724000000002   T   T   T
 41.8134000000000015  7.7904999999999998 40.7717172000000048   T   T   T
 43.3714999999999975  7.7904999999999998 45.0190172000000004   T   T   T
 41.8134000000000015  6.2324000000000002 46.8198724000000013   T   T   T
 43.3714999999999975  6.2324000000000002 39.9392464000000018   T   T   T
 43.3714999999999975  7.7904999999999998 35.6919463999999991   T   T   T
 41.8134000000000015  6.2324000000000002 39.1577432000000059   T   T   T
 43.3714999999999975  6.2324000000000002 34.9104432000000031   T   T   T
 41.8134000000000015  7.7904999999999998 48.4338464000000002   T   T   T
 41.8134000000000015  7.7904999999999998 43.4050432000000015   T   T   T
 43.3714999999999975  7.7904999999999998 47.6523432000000042   T   T   T
 41.8134000000000015  6.2324000000000002 44.1865464000000046   T   T   T
 46.4877000000000038  0.0000000000000000 25.5833724000000089   F   F   F
 46.4877000000000038  1.5581000000000000 21.3360724000000062   F   F   F
 44.9296000000000006  0.0000000000000000 19.5352172000000053   F   F   F
 46.4877000000000038  0.0000000000000000 32.2771171999999993   F   F   F
 44.9296000000000006  1.5581000000000000 17.0887724000000105   F   F   F
 44.9296000000000006  1.5581000000000000 23.7825172000000080   F   F   F
 46.4877000000000038  1.5581000000000000 28.0298172000000037   F   F   F
 44.9296000000000006  0.0000000000000000 29.8306724000000045   F   F   F
 46.4877000000000038  0.0000000000000000 22.9500464000000051   F   F   F
 46.4877000000000038  1.5581000000000000 18.7027464000000094   F   F   F
 44.9296000000000006  0.0000000000000000 22.1685432000000091   F   F   F
 46.4877000000000038  0.0000000000000000 17.9212432000000064   F   F   F
 44.9296000000000006  1.5581000000000000 31.4446464000000034   F   F   F
 44.9296000000000006  1.5581000000000000 26.4158432000000047   F   F   F
 46.4877000000000038  1.5581000000000000 30.6631432000000075   F   F   F
 44.9296000000000006  0.0000000000000000 27.1973464000000078   F   F   F
 46.4877000000000038  0.0000000000000000 42.5725724000000056   T   T   T
 46.4877000000000038  1.5581000000000000 38.3252724000000029   T   T   T
 44.9296000000000006  0.0000000000000000 36.5244172000000020   T   T   T
 46.4877000000000038  0.0000000000000000 49.2663172000000031   T   T   T
 44.9296000000000006  1.5581000000000000 34.0779724000000002   T   T   T
 44.9296000000000006  1.5581000000000000 40.7717172000000048   T   T   T
 46.4877000000000038  1.5581000000000000 45.0190172000000004   T   T   T
 44.9296000000000006  0.0000000000000000 46.8198724000000013   T   T   T
 46.4877000000000038  0.0000000000000000 39.9392464000000018   T   T   T
 46.4877000000000038  1.5581000000000000 35.6919463999999991   T   T   T
 44.9296000000000006  0.0000000000000000 39.1577432000000059   T   T   T
 46.4877000000000038  0.0000000000000000 34.9104432000000031   T   T   T
 44.9296000000000006  1.5581000000000000 48.4338464000000002   T   T   T
 44.9296000000000006  1.5581000000000000 43.4050432000000015   T   T   T
 46.4877000000000038  1.5581000000000000 47.6523432000000042   T   T   T
 44.9296000000000006  0.0000000000000000 44.1865464000000046   T   T   T
 46.4877000000000038  3.1162000000000001 25.5833724000000089   F   F   F
 46.4877000000000038  4.6743000000000006 21.3360724000000062   F   F   F
 44.9296000000000006  3.1162000000000001 19.5352172000000053   F   F   F
 46.4877000000000038  3.1162000000000001 32.2771171999999993   F   F   F
 44.9296000000000006  4.6743000000000006 17.0887724000000105   F   F   F
 44.9296000000000006  4.6743000000000006 23.7825172000000080   F   F   F
 46.4877000000000038  4.6743000000000006 28.0298172000000037   F   F   F
 44.9296000000000006  3.1162000000000001 29.8306724000000045   F   F   F
 46.4877000000000038  3.1162000000000001 22.9500464000000051   F   F   F
 46.4877000000000038  4.6743000000000006 18.7027464000000094   F   F   F
 44.9296000000000006  3.1162000000000001 22.1685432000000091   F   F   F
 46.4877000000000038  3.1162000000000001 17.9212432000000064   F   F   F
 44.9296000000000006  4.6743000000000006 31.4446464000000034   F   F   F
 44.9296000000000006  4.6743000000000006 26.4158432000000047   F   F   F
 46.4877000000000038  4.6743000000000006 30.6631432000000075   F   F   F
 44.9296000000000006  3.1162000000000001 27.1973464000000078   F   F   F
 46.4877000000000038  3.1162000000000001 42.5725724000000056   T   T   T
 46.4877000000000038  4.6743000000000006 38.3252724000000029   T   T   T
 44.9296000000000006  3.1162000000000001 36.5244172000000020   T   T   T
 46.4877000000000038  3.1162000000000001 49.2663172000000031   T   T   T
 44.9296000000000006  4.6743000000000006 34.0779724000000002   T   T   T
 44.9296000000000006  4.6743000000000006 40.7717172000000048   T   T   T
 46.4877000000000038  4.6743000000000006 45.0190172000000004   T   T   T
 44.9296000000000006  3.1162000000000001 46.8198724000000013   T   T   T
 46.4877000000000038  3.1162000000000001 39.9392464000000018   T   T   T
 46.4877000000000038  4.6743000000000006 35.6919463999999991   T   T   T
 44.9296000000000006  3.1162000000000001 39.1577432000000059   T   T   T
 46.4877000000000038  3.1162000000000001 34.9104432000000031   T   T   T
 44.9296000000000006  4.6743000000000006 48.4338464000000002   T   T   T
 44.9296000000000006  4.6743000000000006 43.4050432000000015   T   T   T
 46.4877000000000038  4.6743000000000006 47.6523432000000042   T   T   T
 44.9296000000000006  3.1162000000000001 44.1865464000000046   T   T   T
 46.4877000000000038  6.2324000000000002 25.5833724000000089   F   F   F
 46.4877000000000038  7.7904999999999998 21.3360724000000062   F   F   F
 44.9296000000000006  6.2324000000000002 19.5352172000000053   F   F   F
 46.4877000000000038  6.2324000000000002 32.2771172000000064   F   F   F
 44.9296000000000006  7.7904999999999998 17.0887724000000105   F   F   F
 44.9296000000000006  7.7904999999999998 23.7825172000000080   F   F   F
 46.4877000000000038  7.7904999999999998 28.0298172000000037   F   F   F
 44.9296000000000006  6.2324000000000002 29.8306724000000045   F   F   F
 46.4877000000000038  6.2324000000000002 22.9500464000000051   F   F   F
 46.4877000000000038  7.7904999999999998 18.7027464000000094   F   F   F
 44.9296000000000006  6.2324000000000002 22.1685432000000091   F   F   F
 46.4877000000000038  6.2324000000000002 17.9212432000000064   F   F   F
 44.9296000000000006  7.7904999999999998 31.4446464000000034   F   F   F
 44.9296000000000006  7.7904999999999998 26.4158432000000047   F   F   F
 46.4877000000000038  7.7904999999999998 30.6631432000000075   F   F   F
 44.9296000000000006  6.2324000000000002 27.1973464000000078   F   F   F
 46.4877000000000038  6.2324000000000002 42.5725724000000056   T   T   T
 46.4877000000000038  7.7904999999999998 38.3252724000000100   T   T   T
 44.9296000000000006  6.2324000000000002 36.5244172000000091   T   T   T
 46.4877000000000038  6.2324000000000002 49.2663172000000102   T   T   T
 44.9296000000000006  7.7904999999999998 34.0779724000000073   T   T   T
 44.9296000000000006  7.7904999999999998 40.7717172000000048   T   T   T
 46.4877000000000038  7.7904999999999998 45.0190172000000075   T   T   T
 44.9296000000000006  6.2324000000000002 46.8198724000000084   T   T   T
 46.4877000000000038  6.2324000000000002 39.9392464000000089   T   T   T
 46.4877000000000038  7.7904999999999998 35.6919464000000062   T   T   T
 44.9296000000000006  6.2324000000000002 39.1577432000000059   T   T   T
 46.4877000000000038  6.2324000000000002 34.9104432000000102   T   T   T
 44.9296000000000006  7.7904999999999998 48.4338464000000073   T   T   T
 44.9296000000000006  7.7904999999999998 43.4050432000000086   T   T   T
 46.4877000000000038  7.7904999999999998 47.6523432000000042   T   T   T
 44.9296000000000006  6.2324000000000002 44.1865464000000046   T   T   T
 49.6038999999999959  0.0000000000000000 25.5833724000000089   F   F   F
 49.6038999999999959  1.5581000000000000 21.3360724000000062   F   F   F
 48.0457999999999998  0.0000000000000000 19.5352172000000053   F   F   F
 49.6038999999999959  0.0000000000000000 32.2771171999999993   F   F   F
 48.0457999999999998  1.5581000000000000 17.0887724000000105   F   F   F
 48.0457999999999998  1.5581000000000000 23.7825172000000080   F   F   F
 49.6038999999999959  1.5581000000000000 28.0298172000000037   F   F   F
 48.0457999999999998  0.0000000000000000 29.8306724000000045   F   F   F
 49.6038999999999959  0.0000000000000000 42.5725724000000056   T   T   T
 49.6038999999999959  1.5581000000000000 38.3252724000000029   T   T   T
 48.0457999999999998  0.0000000000000000 36.5244172000000020   T   T   T
 49.6038999999999959  0.0000000000000000 49.2663172000000031   T   T   T
 48.0457999999999998  1.5581000000000000 34.0779724000000002   T   T   T
 48.0457999999999998  1.5581000000000000 40.7717172000000048   T   T   T
 49.6038999999999959  1.5581000000000000 45.0190172000000004   T   T   T
 48.0457999999999998  0.0000000000000000 46.8198724000000013   T   T   T
 49.6038999999999959  3.1162000000000001 25.5833724000000089   F   F   F
 49.6038999999999959  4.6743000000000006 21.3360724000000062   F   F   F
 48.0457999999999998  3.1162000000000001 19.5352172000000053   F   F   F
 49.6038999999999959  3.1162000000000001 32.2771172000000064   F   F   F
 48.0457999999999998  4.6743000000000006 17.0887724000000105   F   F   F
 48.0457999999999998  4.6743000000000006 23.7825172000000080   F   F   F
 49.6038999999999959  4.6743000000000006 28.0298172000000037   F   F   F
 48.0457999999999998  3.1162000000000001 29.8306724000000045   F   F   F
 49.6038999999999959  3.1162000000000001 42.5725724000000056   T   T   T
 49.6038999999999959  4.6743000000000006 38.3252724000000100   T   T   T
 48.0457999999999998  3.1162000000000001 36.5244172000000091   T   T   T
 49.6038999999999959  3.1162000000000001 49.2663172000000102   T   T   T
 48.0457999999999998  4.6743000000000006 34.0779724000000073   T   T   T
 48.0457999999999998  4.6743000000000006 40.7717172000000048   T   T   T
 49.6038999999999959  4.6743000000000006 45.0190172000000075   T   T   T
 48.0457999999999998  3.1162000000000001 46.8198724000000084   T   T   T
 49.6038999999999959  6.2324000000000002 25.5833724000000089   F   F   F
 49.6038999999999959  7.7904999999999998 21.3360724000000062   F   F   F
 48.0457999999999998  6.2324000000000002 19.5352172000000053   F   F   F
 49.6038999999999959  6.2324000000000002 32.2771172000000064   F   F   F
 48.0457999999999998  7.7904999999999998 17.0887724000000105   F   F   F
 48.0457999999999998  7.7904999999999998 23.7825172000000080   F   F   F
 49.6038999999999959  7.7904999999999998 28.0298172000000037   F   F   F
 48.0457999999999998  6.2324000000000002 29.8306724000000045   F   F   F
 49.6038999999999959  6.2324000000000002 42.5725724000000056   T   T   T
 49.6038999999999959  7.7904999999999998 38.3252724000000100   T   T   T
 48.0457999999999998  6.2324000000000002 36.5244172000000091   T   T   T
 49.6038999999999959  6.2324000000000002 49.2663172000000102   T   T   T
 48.0457999999999998  7.7904999999999998 34.0779724000000073   T   T   T
 48.0457999999999998  7.7904999999999998 40.7717172000000048   T   T   T
 49.6038999999999959  7.7904999999999998 45.0190172000000075   T   T   T
 48.0457999999999998  6.2324000000000002 46.8198724000000084   T   T   T
