Ni Mo C  Pd
 1.0000000000000000
    15.7419185615985189    0.0000000000000000    0.0000000000000010
     5.5096714965594824   24.3999737704777040    0.0000000000000015
     0.0000000000000000    0.0000000000000000   37.7887500000000074
 Ni  Mo  C   Pd 
 496 192  96   4
Selective dynamics
Cartesian
  0.0000000000000000  0.0000000000000000 18.6322831632653134   T   T   T
  0.7870959280799265  2.3612877842397779 18.6322831632653134   T   T   T
  1.5741918561598529  4.7225755684795558 18.6322831632653134   T   T   T
  2.3612877842397779  7.0838633527193329 18.6322831632653134   T   T   T
  3.1483837123197058  9.4451511369591117 18.6322831632653134   T   T   T
  3.9354796403996319 11.8064389211988896 18.6322831632653134   T   T   T
  4.7225755684795558 14.1677267054386657 18.6322831632653134   T   T   T
  5.5096714965594815 16.5290144896784419 18.6322831632653134   T   T   T
  6.2967674246394116 18.8903022739182234 18.6322831632653134   T   T   T
  7.0838633527193373 21.2515900581580013 18.6322831632653134   T   T   T
  7.8709592807992639 23.6128778423977792 18.6322831632653134   T   T   T
  3.1483837123197036  1.5741918561598522 18.6322831632653134   T   T   T
  3.9354796403996302  3.9354796403996297 18.6322831632653134   T   T   T
  4.7225755684795567  6.2967674246394072 18.6322831632653134   T   T   T
  5.5096714965594824  8.6580552088791851 18.6322831632653134   T   T   T
  6.2967674246394090 11.0193429931189613 18.6322831632653134   T   T   T
  7.0838633527193338 13.3806307773587392 18.6322831632653134   T   T   T
  7.8709592807992621 15.7419185615985153 18.6322831632653134   T   T   T
  8.6580552088791869 18.1032063458382950 18.6322831632653134   T   T   T
  9.4451511369591135 20.4644941300780694 18.6322831632653134   T   T   T
 10.2322470650390436 22.8257819143178473 18.6322831632653134   T   T   T
  5.5096714965594806  0.7870959280799269 18.6322831632653134   T   T   T
  6.2967674246394072  3.1483837123197045 18.6322831632653134   T   T   T
  7.0838633527193338  5.5096714965594824 18.6322831632653134   T   T   T
  7.8709592807992603  7.8709592807992594 18.6322831632653134   T   T   T
  8.6580552088791851 10.2322470650390365 18.6322831632653134   T   T   T
  9.4451511369591135 12.5935348492788144 18.6322831632653134   T   T   T
 10.2322470650390400 14.9548226335185923 18.6322831632653134   T   T   T
 11.0193429931189648 17.3161104177583702 18.6322831632653134   T   T   T
 11.8064389211988896 19.6773982019981482 18.6322831632653134   T   T   T
 12.5935348492788179 22.0386859862379225 18.6322831632653170   T   T   T
  7.8709592807992577  0.0000000000000014 18.6322831632653134   T   T   T
  8.6580552088791851  2.3612877842397793 18.6322831632653134   T   T   T
  9.4451511369591117  4.7225755684795567 18.6322831632653134   T   T   T
 10.2322470650390365  7.0838633527193329 18.6322831632653134   T   T   T
 11.0193429931189630  9.4451511369591117 18.6322831632653134   T   T   T
 11.8064389211988914 11.8064389211988896 18.6322831632653134   T   T   T
 12.5935348492788144 14.1677267054386657 18.6322831632653134   T   T   T
 13.3806307773587410 16.5290144896784454 18.6322831632653134   T   T   T
 14.1677267054386711 18.8903022739182234 18.6322831632653170   T   T   T
 14.9548226335185976 21.2515900581580013 18.6322831632653170   T   T   T
 15.7419185615985242 23.6128778423977792 18.6322831632653170   T   T   T
 11.0193429931189613  1.5741918561598538 18.6322831632653134   T   T   T
 11.8064389211988860  3.9354796403996302 18.6322831632653134   T   T   T
 12.5935348492788144  6.2967674246394090 18.6322831632653134   T   T   T
 13.3806307773587427  8.6580552088791851 18.6322831632653134   T   T   T
 14.1677267054386675 11.0193429931189648 18.6322831632653134   T   T   T
 14.9548226335185941 13.3806307773587392 18.6322831632653134   T   T   T
 15.7419185615985207 15.7419185615985189 18.6322831632653134   T   T   T
 16.5290144896784454 18.1032063458382950 18.6322831632653170   T   T   T
 17.3161104177583702 20.4644941300780729 18.6322831632653170   T   T   T
 18.1032063458382986 22.8257819143178473 18.6322831632653170   T   T   T
 13.3806307773587410  0.7870959280799293 18.6322831632653134   T   T   T
 14.1677267054386657  3.1483837123197058 18.6322831632653134   T   T   T
 14.9548226335185923  5.5096714965594833 18.6322831632653134   T   T   T
 15.7419185615985207  7.8709592807992621 18.6322831632653134   T   T   T
 16.5290144896784454 10.2322470650390382 18.6322831632653134   T   T   T
 17.3161104177583667 12.5935348492788144 18.6322831632653134   T   T   T
 18.1032063458382950 14.9548226335185923 18.6322831632653170   T   T   T
 18.8903022739182234 17.3161104177583702 18.6322831632653170   T   T   T
 19.6773982019981517 19.6773982019981482 18.6322831632653170   T   T   T
 20.4644941300780729 22.0386859862379225 18.6322831632653170   T   T   T
  1.5741918561598518  0.7870959280799262 20.3922831632653079   T   T   T
  2.3612877842397784  3.1483837123197036 20.3922831632653079   T   T   T
  3.1483837123197045  5.5096714965594806 20.3922831632653079   T   T   T
  3.9354796403996311  7.8709592807992577 20.3922831632653079   T   T   T
  4.7225755684795576 10.2322470650390365 20.3922831632653079   T   T   T
  5.5096714965594824 12.5935348492788144 20.3922831632653079   T   T   T
  6.2967674246394107 14.9548226335185905 20.3922831632653079   T   T   T
  7.0838633527193338 17.3161104177583702 20.3922831632653079   T   T   T
  7.8709592807992639 19.6773982019981482 20.3922831632653079   T   T   T
  8.6580552088791887 22.0386859862379296 20.3922831632653079   T   T   T
  3.9354796403996333  0.0000000000000003 20.3922831632653079   T   T   T
  4.7225755684795558  2.3612877842397784 20.3922831632653079   T   T   T
  5.5096714965594815  4.7225755684795558 20.3922831632653079   T   T   T
  6.2967674246394090  7.0838633527193338 20.3922831632653079   T   T   T
  7.0838633527193355  9.4451511369591135 20.3922831632653079   T   T   T
  7.8709592807992639 11.8064389211988896 20.3922831632653079   T   T   T
  8.6580552088791869 14.1677267054386657 20.3922831632653079   T   T   T
  9.4451511369591135 16.5290144896784419 20.3922831632653079   T   T   T
 10.2322470650390400 18.8903022739182234 20.3922831632653079   T   T   T
 11.0193429931189666 21.2515900581579977 20.3922831632653079   T   T   T
 11.8064389211988932 23.6128778423977757 20.3922831632653114   T   T   T
  7.0838633527193329  1.5741918561598529 20.3922831632653079   T   T   T
  7.8709592807992603  3.9354796403996311 20.3922831632653079   T   T   T
  8.6580552088791869  6.2967674246394072 20.3922831632653079   T   T   T
  9.4451511369591117  8.6580552088791851 20.3922831632653079   T   T   T
 10.2322470650390365 11.0193429931189613 20.3922831632653079   T   T   T
 11.0193429931189648 13.3806307773587392 20.3922831632653079   T   T   T
 11.8064389211988896 15.7419185615985207 20.3922831632653079   T   T   T
 12.5935348492788215 18.1032063458382950 20.3922831632653079   T   T   T
 13.3806307773587392 20.4644941300780729 20.3922831632653114   T   T   T
 14.1677267054386711 22.8257819143178544 20.3922831632653114   T   T   T
  9.4451511369591099  0.7870959280799279 20.3922831632653079   T   T   T
 10.2322470650390365  3.1483837123197058 20.3922831632653079   T   T   T
 11.0193429931189648  5.5096714965594824 20.3922831632653079   T   T   T
 11.8064389211988896  7.8709592807992603 20.3922831632653079   T   T   T
 12.5935348492788179 10.2322470650390382 20.3922831632653079   T   T   T
 13.3806307773587427 12.5935348492788144 20.3922831632653079   T   T   T
 14.1677267054386675 14.9548226335185905 20.3922831632653079   T   T   T
 14.9548226335185941 17.3161104177583702 20.3922831632653079   T   T   T
 15.7419185615985242 19.6773982019981482 20.3922831632653114   T   T   T
 16.5290144896784490 22.0386859862379296 20.3922831632653114   T   T   T
 11.8064389211988914  0.0000000000000068 20.3922831632653079   T   T   T
 12.5935348492788126  2.3612877842397793 20.3922831632653079   T   T   T
 13.3806307773587392  4.7225755684795567 20.3922831632653079   T   T   T
 14.1677267054386675  7.0838633527193355 20.3922831632653079   T   T   T
 14.9548226335185923  9.4451511369591135 20.3922831632653079   T   T   T
 15.7419185615985224 11.8064389211988914 20.3922831632653079   T   T   T
 16.5290144896784454 14.1677267054386657 20.3922831632653079   T   T   T
 17.3161104177583738 16.5290144896784454 20.3922831632653114   T   T   T
 18.1032063458383021 18.8903022739182234 20.3922831632653114   T   T   T
 18.8903022739182234 21.2515900581579977 20.3922831632653114   T   T   T
 19.6773982019981482 23.6128778423977792 20.3922831632653114   T   T   T
 14.9548226335185923  1.5741918561598551 20.3922831632653079   T   T   T
 15.7419185615985153  3.9354796403996311 20.3922831632653079   T   T   T
 16.5290144896784454  6.2967674246394099 20.3922831632653079   T   T   T
 17.3161104177583738  8.6580552088791869 20.3922831632653079   T   T   T
 18.1032063458382986 11.0193429931189648 20.3922831632653079   T   T   T
  3.1483837123197054 13.3806307773587392 20.3922831632653079   T   T   T
  3.9354796403996359 15.7419185615985207 20.3922831632653079   T   T   T
  4.7225755684795576 18.1032063458382950 20.3922831632653079   T   T   T
  5.5096714965594806 20.4644941300780729 20.3922831632653079   T   T   T
  6.2967674246394081 22.8257819143178473 20.3922831632653079   T   T   T
  0.0000000000000000  0.0000000000000000 15.1122831632653050   T   T   T
  0.7870959280799265  2.3612877842397779 15.1122831632653050   T   T   T
  1.5741918561598529  4.7225755684795558 15.1122831632653050   T   T   T
  2.3612877842397779  7.0838633527193329 15.1122831632653050   T   T   T
  3.1483837123197058  9.4451511369591117 15.1122831632653050   T   T   T
  3.9354796403996319 11.8064389211988896 15.1122831632653050   T   T   T
  4.7225755684795558 14.1677267054386657 15.1122831632653067   T   T   T
  5.5096714965594815 16.5290144896784419 15.1122831632653067   T   T   T
  6.2967674246394116 18.8903022739182234 15.1122831632653067   T   T   T
  7.0838633527193373 21.2515900581580013 15.1122831632653067   T   T   T
  7.8709592807992639 23.6128778423977792 15.1122831632653067   T   T   T
  3.1483837123197036  1.5741918561598522 15.1122831632653050   T   T   T
  3.9354796403996302  3.9354796403996297 15.1122831632653050   T   T   T
  4.7225755684795567  6.2967674246394072 15.1122831632653050   T   T   T
  5.5096714965594824  8.6580552088791851 15.1122831632653050   T   T   T
  6.2967674246394090 11.0193429931189613 15.1122831632653067   T   T   T
  7.0838633527193338 13.3806307773587392 15.1122831632653067   T   T   T
  7.8709592807992621 15.7419185615985153 15.1122831632653067   T   T   T
  8.6580552088791869 18.1032063458382950 15.1122831632653067   T   T   T
  9.4451511369591135 20.4644941300780694 15.1122831632653067   T   T   T
 10.2322470650390436 22.8257819143178473 15.1122831632653067   T   T   T
  5.5096714965594806  0.7870959280799269 15.1122831632653050   T   T   T
  6.2967674246394072  3.1483837123197045 15.1122831632653050   T   T   T
  7.0838633527193338  5.5096714965594824 15.1122831632653050   T   T   T
  7.8709592807992603  7.8709592807992594 15.1122831632653050   T   T   T
  8.6580552088791851 10.2322470650390365 15.1122831632653067   T   T   T
  9.4451511369591135 12.5935348492788144 15.1122831632653067   T   T   T
 10.2322470650390400 14.9548226335185923 15.1122831632653067   T   T   T
 11.0193429931189648 17.3161104177583702 15.1122831632653067   T   T   T
 11.8064389211988896 19.6773982019981482 15.1122831632653067   T   T   T
 12.5935348492788179 22.0386859862379225 15.1122831632653067   T   T   T
  7.8709592807992577  0.0000000000000014 15.1122831632653050   T   T   T
  8.6580552088791851  2.3612877842397793 15.1122831632653050   T   T   T
  9.4451511369591117  4.7225755684795567 15.1122831632653050   T   T   T
 10.2322470650390365  7.0838633527193329 15.1122831632653067   T   T   T
 11.0193429931189630  9.4451511369591117 15.1122831632653067   T   T   T
 11.8064389211988914 11.8064389211988896 15.1122831632653067   T   T   T
 12.5935348492788144 14.1677267054386657 15.1122831632653067   T   T   T
 13.3806307773587410 16.5290144896784454 15.1122831632653067   T   T   T
 14.1677267054386711 18.8903022739182234 15.1122831632653067   T   T   T
 14.9548226335185976 21.2515900581580013 15.1122831632653067   T   T   T
 15.7419185615985242 23.6128778423977792 15.1122831632653067   T   T   T
 11.0193429931189613  1.5741918561598538 15.1122831632653050   T   T   T
 11.8064389211988860  3.9354796403996302 15.1122831632653067   T   T   T
 12.5935348492788144  6.2967674246394090 15.1122831632653067   T   T   T
 13.3806307773587427  8.6580552088791851 15.1122831632653067   T   T   T
 14.1677267054386675 11.0193429931189648 15.1122831632653067   T   T   T
 14.9548226335185941 13.3806307773587392 15.1122831632653067   T   T   T
 15.7419185615985207 15.7419185615985189 15.1122831632653067   T   T   T
 16.5290144896784454 18.1032063458382950 15.1122831632653067   T   T   T
 17.3161104177583702 20.4644941300780729 15.1122831632653067   T   T   T
 18.1032063458382986 22.8257819143178473 15.1122831632653067   T   T   T
 13.3806307773587410  0.7870959280799293 15.1122831632653050   T   T   T
 14.1677267054386657  3.1483837123197058 15.1122831632653067   T   T   T
 14.9548226335185923  5.5096714965594833 15.1122831632653067   T   T   T
 15.7419185615985207  7.8709592807992621 15.1122831632653067   T   T   T
 16.5290144896784454 10.2322470650390382 15.1122831632653067   T   T   T
 17.3161104177583667 12.5935348492788144 15.1122831632653067   T   T   T
 18.1032063458382950 14.9548226335185923 15.1122831632653067   T   T   T
 18.8903022739182234 17.3161104177583702 15.1122831632653067   T   T   T
 19.6773982019981517 19.6773982019981482 15.1122831632653067   T   T   T
 20.4644941300780729 22.0386859862379225 15.1122831632653067   T   T   T
  1.5741918561598518  0.7870959280799262 16.8722831632653119   T   T   T
  2.3612877842397784  3.1483837123197036 16.8722831632653119   T   T   T
  3.1483837123197045  5.5096714965594806 16.8722831632653119   T   T   T
  3.9354796403996311  7.8709592807992577 16.8722831632653119   T   T   T
  4.7225755684795576 10.2322470650390365 16.8722831632653119   T   T   T
  5.5096714965594824 12.5935348492788144 16.8722831632653119   T   T   T
  6.2967674246394107 14.9548226335185905 16.8722831632653119   T   T   T
  7.0838633527193338 17.3161104177583702 16.8722831632653119   T   T   T
  7.8709592807992639 19.6773982019981482 16.8722831632653119   T   T   T
  8.6580552088791887 22.0386859862379296 16.8722831632653119   T   T   T
  3.9354796403996333  0.0000000000000003 16.8722831632653119   T   T   T
  4.7225755684795558  2.3612877842397784 16.8722831632653119   T   T   T
  5.5096714965594815  4.7225755684795558 16.8722831632653119   T   T   T
  6.2967674246394090  7.0838633527193338 16.8722831632653119   T   T   T
  7.0838633527193355  9.4451511369591135 16.8722831632653119   T   T   T
  7.8709592807992639 11.8064389211988896 16.8722831632653119   T   T   T
  8.6580552088791869 14.1677267054386657 16.8722831632653119   T   T   T
  9.4451511369591135 16.5290144896784419 16.8722831632653119   T   T   T
 10.2322470650390400 18.8903022739182234 16.8722831632653119   T   T   T
 11.0193429931189666 21.2515900581579977 16.8722831632653119   T   T   T
 11.8064389211988932 23.6128778423977757 16.8722831632653154   T   T   T
  7.0838633527193329  1.5741918561598529 16.8722831632653119   T   T   T
  7.8709592807992603  3.9354796403996311 16.8722831632653119   T   T   T
  8.6580552088791869  6.2967674246394072 16.8722831632653119   T   T   T
  9.4451511369591117  8.6580552088791851 16.8722831632653119   T   T   T
 10.2322470650390365 11.0193429931189613 16.8722831632653119   T   T   T
 11.0193429931189648 13.3806307773587392 16.8722831632653119   T   T   T
 11.8064389211988896 15.7419185615985207 16.8722831632653119   T   T   T
 12.5935348492788215 18.1032063458382950 16.8722831632653119   T   T   T
 13.3806307773587392 20.4644941300780729 16.8722831632653154   T   T   T
 14.1677267054386711 22.8257819143178544 16.8722831632653154   T   T   T
  9.4451511369591099  0.7870959280799279 16.8722831632653119   T   T   T
 10.2322470650390365  3.1483837123197058 16.8722831632653119   T   T   T
 11.0193429931189648  5.5096714965594824 16.8722831632653119   T   T   T
 11.8064389211988896  7.8709592807992603 16.8722831632653119   T   T   T
 12.5935348492788179 10.2322470650390382 16.8722831632653119   T   T   T
 13.3806307773587427 12.5935348492788144 16.8722831632653119   T   T   T
 14.1677267054386675 14.9548226335185905 16.8722831632653119   T   T   T
 14.9548226335185941 17.3161104177583702 16.8722831632653119   T   T   T
 15.7419185615985242 19.6773982019981482 16.8722831632653154   T   T   T
 16.5290144896784490 22.0386859862379296 16.8722831632653154   T   T   T
 11.8064389211988914  0.0000000000000068 16.8722831632653119   T   T   T
 12.5935348492788126  2.3612877842397793 16.8722831632653119   T   T   T
 13.3806307773587392  4.7225755684795567 16.8722831632653119   T   T   T
 14.1677267054386675  7.0838633527193355 16.8722831632653119   T   T   T
 14.9548226335185923  9.4451511369591135 16.8722831632653119   T   T   T
 15.7419185615985224 11.8064389211988914 16.8722831632653119   T   T   T
 16.5290144896784454 14.1677267054386657 16.8722831632653119   T   T   T
 17.3161104177583738 16.5290144896784454 16.8722831632653154   T   T   T
 18.1032063458383021 18.8903022739182234 16.8722831632653154   T   T   T
 18.8903022739182234 21.2515900581579977 16.8722831632653154   T   T   T
 19.6773982019981482 23.6128778423977792 16.8722831632653154   T   T   T
 14.9548226335185923  1.5741918561598551 16.8722831632653119   T   T   T
 15.7419185615985153  3.9354796403996311 16.8722831632653119   T   T   T
 16.5290144896784454  6.2967674246394099 16.8722831632653119   T   T   T
 17.3161104177583738  8.6580552088791869 16.8722831632653119   T   T   T
 18.1032063458382986 11.0193429931189648 16.8722831632653119   T   T   T
  3.1483837123197054 13.3806307773587392 16.8722831632653119   T   T   T
  3.9354796403996359 15.7419185615985207 16.8722831632653119   T   T   T
  4.7225755684795576 18.1032063458382950 16.8722831632653119   T   T   T
  5.5096714965594806 20.4644941300780729 16.8722831632653119   T   T   T
  6.2967674246394081 22.8257819143178473 16.8722831632653119   T   T   T
  0.0000000000000000  0.0000000000000000 11.5922831632653072   F   F   F
  0.7870959280799265  2.3612877842397779 11.5922831632653072   F   F   F
  1.5741918561598529  4.7225755684795558 11.5922831632653072   F   F   F
  2.3612877842397779  7.0838633527193329 11.5922831632653072   F   F   F
  3.1483837123197058  9.4451511369591117 11.5922831632653072   F   F   F
  3.9354796403996319 11.8064389211988896 11.5922831632653072   F   F   F
  4.7225755684795558 14.1677267054386657 11.5922831632653089   F   F   F
  5.5096714965594815 16.5290144896784419 11.5922831632653089   F   F   F
  6.2967674246394116 18.8903022739182234 11.5922831632653089   F   F   F
  7.0838633527193373 21.2515900581580013 11.5922831632653089   F   F   F
  7.8709592807992639 23.6128778423977792 11.5922831632653089   F   F   F
  3.1483837123197036  1.5741918561598522 11.5922831632653072   F   F   F
  3.9354796403996302  3.9354796403996297 11.5922831632653072   F   F   F
  4.7225755684795567  6.2967674246394072 11.5922831632653072   F   F   F
  5.5096714965594824  8.6580552088791851 11.5922831632653072   F   F   F
  6.2967674246394090 11.0193429931189613 11.5922831632653089   F   F   F
  7.0838633527193338 13.3806307773587392 11.5922831632653089   F   F   F
  7.8709592807992621 15.7419185615985153 11.5922831632653089   F   F   F
  8.6580552088791869 18.1032063458382950 11.5922831632653089   F   F   F
  9.4451511369591135 20.4644941300780694 11.5922831632653089   F   F   F
 10.2322470650390436 22.8257819143178473 11.5922831632653089   F   F   F
  5.5096714965594806  0.7870959280799269 11.5922831632653072   F   F   F
  6.2967674246394072  3.1483837123197045 11.5922831632653072   F   F   F
  7.0838633527193338  5.5096714965594824 11.5922831632653072   F   F   F
  7.8709592807992603  7.8709592807992594 11.5922831632653072   F   F   F
  8.6580552088791851 10.2322470650390365 11.5922831632653089   F   F   F
  9.4451511369591135 12.5935348492788144 11.5922831632653089   F   F   F
 10.2322470650390400 14.9548226335185923 11.5922831632653089   F   F   F
 11.0193429931189648 17.3161104177583702 11.5922831632653089   F   F   F
 11.8064389211988896 19.6773982019981482 11.5922831632653089   F   F   F
 12.5935348492788179 22.0386859862379225 11.5922831632653089   F   F   F
  7.8709592807992577  0.0000000000000014 11.5922831632653072   F   F   F
  8.6580552088791851  2.3612877842397793 11.5922831632653072   F   F   F
  9.4451511369591117  4.7225755684795567 11.5922831632653072   F   F   F
 10.2322470650390365  7.0838633527193329 11.5922831632653089   F   F   F
 11.0193429931189630  9.4451511369591117 11.5922831632653089   F   F   F
 11.8064389211988914 11.8064389211988896 11.5922831632653089   F   F   F
 12.5935348492788144 14.1677267054386657 11.5922831632653089   F   F   F
 13.3806307773587410 16.5290144896784454 11.5922831632653089   F   F   F
 14.1677267054386711 18.8903022739182234 11.5922831632653089   F   F   F
 14.9548226335185976 21.2515900581580013 11.5922831632653089   F   F   F
 15.7419185615985242 23.6128778423977792 11.5922831632653089   F   F   F
 11.0193429931189613  1.5741918561598538 11.5922831632653072   F   F   F
 11.8064389211988860  3.9354796403996302 11.5922831632653089   F   F   F
 12.5935348492788144  6.2967674246394090 11.5922831632653089   F   F   F
 13.3806307773587427  8.6580552088791851 11.5922831632653089   F   F   F
 14.1677267054386675 11.0193429931189648 11.5922831632653089   F   F   F
 14.9548226335185941 13.3806307773587392 11.5922831632653089   F   F   F
 15.7419185615985207 15.7419185615985189 11.5922831632653089   F   F   F
 16.5290144896784454 18.1032063458382950 11.5922831632653089   F   F   F
 17.3161104177583702 20.4644941300780729 11.5922831632653089   F   F   F
 18.1032063458382986 22.8257819143178473 11.5922831632653089   F   F   F
 13.3806307773587410  0.7870959280799293 11.5922831632653072   F   F   F
 14.1677267054386657  3.1483837123197058 11.5922831632653089   F   F   F
 14.9548226335185923  5.5096714965594833 11.5922831632653089   F   F   F
 15.7419185615985207  7.8709592807992621 11.5922831632653089   F   F   F
 16.5290144896784454 10.2322470650390382 11.5922831632653089   F   F   F
 17.3161104177583667 12.5935348492788144 11.5922831632653089   F   F   F
 18.1032063458382950 14.9548226335185923 11.5922831632653089   F   F   F
 18.8903022739182234 17.3161104177583702 11.5922831632653089   F   F   F
 19.6773982019981517 19.6773982019981482 11.5922831632653089   F   F   F
 20.4644941300780729 22.0386859862379225 11.5922831632653089   F   F   F
  1.5741918561598518  0.7870959280799262 13.3522831632653105   F   F   F
  2.3612877842397784  3.1483837123197036 13.3522831632653105   F   F   F
  3.1483837123197045  5.5096714965594806 13.3522831632653105   F   F   F
  3.9354796403996311  7.8709592807992577 13.3522831632653105   F   F   F
  4.7225755684795576 10.2322470650390365 13.3522831632653105   F   F   F
  5.5096714965594824 12.5935348492788144 13.3522831632653123   F   F   F
  6.2967674246394107 14.9548226335185905 13.3522831632653123   F   F   F
  7.0838633527193338 17.3161104177583702 13.3522831632653123   F   F   F
  7.8709592807992639 19.6773982019981482 13.3522831632653123   F   F   F
  8.6580552088791887 22.0386859862379296 13.3522831632653123   F   F   F
  3.9354796403996333  0.0000000000000003 13.3522831632653105   F   F   F
  4.7225755684795558  2.3612877842397784 13.3522831632653105   F   F   F
  5.5096714965594815  4.7225755684795558 13.3522831632653105   F   F   F
  6.2967674246394090  7.0838633527193338 13.3522831632653105   F   F   F
  7.0838633527193355  9.4451511369591135 13.3522831632653123   F   F   F
  7.8709592807992639 11.8064389211988896 13.3522831632653123   F   F   F
  8.6580552088791869 14.1677267054386657 13.3522831632653123   F   F   F
  9.4451511369591135 16.5290144896784419 13.3522831632653123   F   F   F
 10.2322470650390400 18.8903022739182234 13.3522831632653123   F   F   F
 11.0193429931189666 21.2515900581579977 13.3522831632653123   F   F   F
 11.8064389211988932 23.6128778423977757 13.3522831632653123   F   F   F
  7.0838633527193329  1.5741918561598529 13.3522831632653105   F   F   F
  7.8709592807992603  3.9354796403996311 13.3522831632653105   F   F   F
  8.6580552088791869  6.2967674246394072 13.3522831632653105   F   F   F
  9.4451511369591117  8.6580552088791851 13.3522831632653123   F   F   F
 10.2322470650390365 11.0193429931189613 13.3522831632653123   F   F   F
 11.0193429931189648 13.3806307773587392 13.3522831632653123   F   F   F
 11.8064389211988896 15.7419185615985207 13.3522831632653123   F   F   F
 12.5935348492788215 18.1032063458382950 13.3522831632653123   F   F   F
 13.3806307773587392 20.4644941300780729 13.3522831632653123   F   F   F
 14.1677267054386711 22.8257819143178544 13.3522831632653123   F   F   F
  9.4451511369591099  0.7870959280799279 13.3522831632653105   F   F   F
 10.2322470650390365  3.1483837123197058 13.3522831632653105   F   F   F
 11.0193429931189648  5.5096714965594824 13.3522831632653123   F   F   F
 11.8064389211988896  7.8709592807992603 13.3522831632653123   F   F   F
 12.5935348492788179 10.2322470650390382 13.3522831632653123   F   F   F
 13.3806307773587427 12.5935348492788144 13.3522831632653123   F   F   F
 14.1677267054386675 14.9548226335185905 13.3522831632653123   F   F   F
 14.9548226335185941 17.3161104177583702 13.3522831632653123   F   F   F
 15.7419185615985242 19.6773982019981482 13.3522831632653123   F   F   F
 16.5290144896784490 22.0386859862379296 13.3522831632653123   F   F   F
 11.8064389211988914  0.0000000000000068 13.3522831632653105   F   F   F
 12.5935348492788126  2.3612877842397793 13.3522831632653105   F   F   F
 13.3806307773587392  4.7225755684795567 13.3522831632653123   F   F   F
 14.1677267054386675  7.0838633527193355 13.3522831632653123   F   F   F
 14.9548226335185923  9.4451511369591135 13.3522831632653123   F   F   F
 15.7419185615985224 11.8064389211988914 13.3522831632653123   F   F   F
 16.5290144896784454 14.1677267054386657 13.3522831632653123   F   F   F
 17.3161104177583738 16.5290144896784454 13.3522831632653123   F   F   F
 18.1032063458383021 18.8903022739182234 13.3522831632653123   F   F   F
 18.8903022739182234 21.2515900581579977 13.3522831632653123   F   F   F
 19.6773982019981482 23.6128778423977792 13.3522831632653123   F   F   F
 14.9548226335185923  1.5741918561598551 13.3522831632653123   F   F   F
 15.7419185615985153  3.9354796403996311 13.3522831632653123   F   F   F
 16.5290144896784454  6.2967674246394099 13.3522831632653123   F   F   F
 17.3161104177583738  8.6580552088791869 13.3522831632653123   F   F   F
 18.1032063458382986 11.0193429931189648 13.3522831632653123   F   F   F
  3.1483837123197054 13.3806307773587392 13.3522831632653105   F   F   F
  3.9354796403996359 15.7419185615985207 13.3522831632653123   F   F   F
  4.7225755684795576 18.1032063458382950 13.3522831632653123   F   F   F
  5.5096714965594806 20.4644941300780729 13.3522831632653123   F   F   F
  6.2967674246394081 22.8257819143178473 13.3522831632653123   F   F   F
  0.0000000000000000  0.0000000000000000  8.0722831632653076   F   F   F
  0.7870959280799265  2.3612877842397779  8.0722831632653076   F   F   F
  1.5741918561598529  4.7225755684795558  8.0722831632653076   F   F   F
  2.3612877842397779  7.0838633527193329  8.0722831632653076   F   F   F
  3.1483837123197058  9.4451511369591117  8.0722831632653076   F   F   F
  3.9354796403996319 11.8064389211988896  8.0722831632653076   F   F   F
  4.7225755684795558 14.1677267054386657  8.0722831632653094   F   F   F
  5.5096714965594815 16.5290144896784419  8.0722831632653094   F   F   F
  6.2967674246394116 18.8903022739182234  8.0722831632653094   F   F   F
  7.0838633527193373 21.2515900581580013  8.0722831632653094   F   F   F
  7.8709592807992639 23.6128778423977792  8.0722831632653094   F   F   F
  3.1483837123197036  1.5741918561598522  8.0722831632653076   F   F   F
  3.9354796403996302  3.9354796403996297  8.0722831632653076   F   F   F
  4.7225755684795567  6.2967674246394072  8.0722831632653076   F   F   F
  5.5096714965594824  8.6580552088791851  8.0722831632653076   F   F   F
  6.2967674246394090 11.0193429931189613  8.0722831632653094   F   F   F
  7.0838633527193338 13.3806307773587392  8.0722831632653094   F   F   F
  7.8709592807992621 15.7419185615985153  8.0722831632653094   F   F   F
  8.6580552088791869 18.1032063458382950  8.0722831632653094   F   F   F
  9.4451511369591135 20.4644941300780694  8.0722831632653094   F   F   F
 10.2322470650390436 22.8257819143178473  8.0722831632653094   F   F   F
  5.5096714965594806  0.7870959280799269  8.0722831632653076   F   F   F
  6.2967674246394072  3.1483837123197045  8.0722831632653076   F   F   F
  7.0838633527193338  5.5096714965594824  8.0722831632653076   F   F   F
  7.8709592807992603  7.8709592807992594  8.0722831632653076   F   F   F
  8.6580552088791851 10.2322470650390365  8.0722831632653094   F   F   F
  9.4451511369591135 12.5935348492788144  8.0722831632653094   F   F   F
 10.2322470650390400 14.9548226335185923  8.0722831632653094   F   F   F
 11.0193429931189648 17.3161104177583702  8.0722831632653094   F   F   F
 11.8064389211988896 19.6773982019981482  8.0722831632653094   F   F   F
 12.5935348492788179 22.0386859862379225  8.0722831632653094   F   F   F
  7.8709592807992577  0.0000000000000014  8.0722831632653076   F   F   F
  8.6580552088791851  2.3612877842397793  8.0722831632653076   F   F   F
  9.4451511369591117  4.7225755684795567  8.0722831632653076   F   F   F
 10.2322470650390365  7.0838633527193329  8.0722831632653094   F   F   F
 11.0193429931189630  9.4451511369591117  8.0722831632653094   F   F   F
 11.8064389211988914 11.8064389211988896  8.0722831632653094   F   F   F
 12.5935348492788144 14.1677267054386657  8.0722831632653094   F   F   F
 13.3806307773587410 16.5290144896784454  8.0722831632653094   F   F   F
 14.1677267054386711 18.8903022739182234  8.0722831632653094   F   F   F
 14.9548226335185976 21.2515900581580013  8.0722831632653094   F   F   F
 15.7419185615985242 23.6128778423977792  8.0722831632653094   F   F   F
 11.0193429931189613  1.5741918561598538  8.0722831632653076   F   F   F
 11.8064389211988860  3.9354796403996302  8.0722831632653094   F   F   F
 12.5935348492788144  6.2967674246394090  8.0722831632653094   F   F   F
 13.3806307773587427  8.6580552088791851  8.0722831632653094   F   F   F
 14.1677267054386675 11.0193429931189648  8.0722831632653094   F   F   F
 14.9548226335185941 13.3806307773587392  8.0722831632653094   F   F   F
 15.7419185615985207 15.7419185615985189  8.0722831632653094   F   F   F
 16.5290144896784454 18.1032063458382950  8.0722831632653094   F   F   F
 17.3161104177583702 20.4644941300780729  8.0722831632653094   F   F   F
 18.1032063458382986 22.8257819143178473  8.0722831632653094   F   F   F
 13.3806307773587410  0.7870959280799293  8.0722831632653076   F   F   F
 14.1677267054386657  3.1483837123197058  8.0722831632653094   F   F   F
 14.9548226335185923  5.5096714965594833  8.0722831632653094   F   F   F
 15.7419185615985207  7.8709592807992621  8.0722831632653094   F   F   F
 16.5290144896784454 10.2322470650390382  8.0722831632653094   F   F   F
 17.3161104177583667 12.5935348492788144  8.0722831632653094   F   F   F
 18.1032063458382950 14.9548226335185923  8.0722831632653094   F   F   F
 18.8903022739182234 17.3161104177583702  8.0722831632653094   F   F   F
 19.6773982019981517 19.6773982019981482  8.0722831632653094   F   F   F
 20.4644941300780729 22.0386859862379225  8.0722831632653094   F   F   F
  1.5741918561598518  0.7870959280799262  9.8322831632653038   F   F   F
  2.3612877842397784  3.1483837123197036  9.8322831632653038   F   F   F
  3.1483837123197045  5.5096714965594806  9.8322831632653038   F   F   F
  3.9354796403996311  7.8709592807992577  9.8322831632653038   F   F   F
  4.7225755684795576 10.2322470650390365  9.8322831632653038   F   F   F
  5.5096714965594824 12.5935348492788144  9.8322831632653056   F   F   F
  6.2967674246394107 14.9548226335185905  9.8322831632653056   F   F   F
  7.0838633527193338 17.3161104177583702  9.8322831632653056   F   F   F
  7.8709592807992639 19.6773982019981482  9.8322831632653056   F   F   F
  8.6580552088791887 22.0386859862379296  9.8322831632653056   F   F   F
  3.9354796403996333  0.0000000000000003  9.8322831632653038   F   F   F
  4.7225755684795558  2.3612877842397784  9.8322831632653038   F   F   F
  5.5096714965594815  4.7225755684795558  9.8322831632653038   F   F   F
  6.2967674246394090  7.0838633527193338  9.8322831632653038   F   F   F
  7.0838633527193355  9.4451511369591135  9.8322831632653056   F   F   F
  7.8709592807992639 11.8064389211988896  9.8322831632653056   F   F   F
  8.6580552088791869 14.1677267054386657  9.8322831632653056   F   F   F
  9.4451511369591135 16.5290144896784419  9.8322831632653056   F   F   F
 10.2322470650390400 18.8903022739182234  9.8322831632653056   F   F   F
 11.0193429931189666 21.2515900581579977  9.8322831632653056   F   F   F
 11.8064389211988932 23.6128778423977757  9.8322831632653056   F   F   F
  7.0838633527193329  1.5741918561598529  9.8322831632653038   F   F   F
  7.8709592807992603  3.9354796403996311  9.8322831632653038   F   F   F
  8.6580552088791869  6.2967674246394072  9.8322831632653038   F   F   F
  9.4451511369591117  8.6580552088791851  9.8322831632653056   F   F   F
 10.2322470650390365 11.0193429931189613  9.8322831632653056   F   F   F
 11.0193429931189648 13.3806307773587392  9.8322831632653056   F   F   F
 11.8064389211988896 15.7419185615985207  9.8322831632653056   F   F   F
 12.5935348492788215 18.1032063458382950  9.8322831632653056   F   F   F
 13.3806307773587392 20.4644941300780729  9.8322831632653056   F   F   F
 14.1677267054386711 22.8257819143178544  9.8322831632653056   F   F   F
  9.4451511369591099  0.7870959280799279  9.8322831632653038   F   F   F
 10.2322470650390365  3.1483837123197058  9.8322831632653038   F   F   F
 11.0193429931189648  5.5096714965594824  9.8322831632653056   F   F   F
 11.8064389211988896  7.8709592807992603  9.8322831632653056   F   F   F
 12.5935348492788179 10.2322470650390382  9.8322831632653056   F   F   F
 13.3806307773587427 12.5935348492788144  9.8322831632653056   F   F   F
 14.1677267054386675 14.9548226335185905  9.8322831632653056   F   F   F
 14.9548226335185941 17.3161104177583702  9.8322831632653056   F   F   F
 15.7419185615985242 19.6773982019981482  9.8322831632653056   F   F   F
 16.5290144896784490 22.0386859862379296  9.8322831632653056   F   F   F
 11.8064389211988914  0.0000000000000068  9.8322831632653038   F   F   F
 12.5935348492788126  2.3612877842397793  9.8322831632653038   F   F   F
 13.3806307773587392  4.7225755684795567  9.8322831632653056   F   F   F
 14.1677267054386675  7.0838633527193355  9.8322831632653056   F   F   F
 14.9548226335185923  9.4451511369591135  9.8322831632653056   F   F   F
 15.7419185615985224 11.8064389211988914  9.8322831632653056   F   F   F
 16.5290144896784454 14.1677267054386657  9.8322831632653056   F   F   F
 17.3161104177583738 16.5290144896784454  9.8322831632653056   F   F   F
 18.1032063458383021 18.8903022739182234  9.8322831632653056   F   F   F
 18.8903022739182234 21.2515900581579977  9.8322831632653056   F   F   F
 19.6773982019981482 23.6128778423977792  9.8322831632653056   F   F   F
 14.9548226335185923  1.5741918561598551  9.8322831632653056   F   F   F
 15.7419185615985153  3.9354796403996311  9.8322831632653056   F   F   F
 16.5290144896784454  6.2967674246394099  9.8322831632653056   F   F   F
 17.3161104177583738  8.6580552088791869  9.8322831632653056   F   F   F
 18.1032063458382986 11.0193429931189648  9.8322831632653056   F   F   F
  3.1483837123197054 13.3806307773587392  9.8322831632653038   F   F   F
  3.9354796403996359 15.7419185615985207  9.8322831632653056   F   F   F
  4.7225755684795576 18.1032063458382950  9.8322831632653056   F   F   F
  5.5096714965594806 20.4644941300780729  9.8322831632653056   F   F   F
  6.2967674246394081 22.8257819143178473  9.8322831632653056   F   F   F
  2.1963255959796935  0.7624991803274299 28.4985331632653143   T   T   T
  7.4436317831791987  0.7624991803274299 28.4985331632653143   T   T   T
 12.6909379703787035  0.7624991803274299 28.4985331632653143   T   T   T
  7.5092231105191924  6.8624926229468555 28.4985331632653143   T   T   T
 12.7565292977186946  6.8624926229468555 28.4985331632653143   T   T   T
  2.2619169233196876  6.8624926229468555 28.4985331632653143   T   T   T
  7.5748144378591853 12.9624860655662832 28.4985331632653143   T   T   T
 12.8221206250586928 12.9624860655662832 28.4985331632653143   T   T   T
 18.0694268122581967 12.9624860655662832 28.4985331632653143   T   T   T
  7.6404057651991799 19.0624795081857101 28.4985331632653143   T   T   T
 12.8877119523986856 19.0624795081857101 28.4985331632653143   T   T   T
 18.1350181395981949 19.0624795081857101 28.4985331632653178   T   T   T
  4.8691721850844418  5.3374942622920001 28.4985331632653143   T   T   T
 10.1164783722839466  5.3374942622920001 28.4985331632653143   T   T   T
 15.3637845594834523  5.3374942622920001 28.4985331632653143   T   T   T
 10.1820696996239413 11.4374877049114261 28.4985331632653143   T   T   T
 15.4293758868234434 11.4374877049114261 28.4985331632653143   T   T   T
  4.9347635124244356 11.4374877049114261 28.4985331632653143   T   T   T
 10.2476610269639359 17.5374811475308512 28.4985331632653143   T   T   T
 15.4949672141634363 17.5374811475308512 28.4985331632653178   T   T   T
  5.0003548397644266 17.5374811475308512 28.4985331632653143   T   T   T
 10.3132523543039287 23.6374745901502799 28.4985331632653178   T   T   T
 15.5605585415034327 23.6374745901502799 28.4985331632653178   T   T   T
 20.8078647287029384 23.6374745901502799 28.4985331632653178   T   T   T
  3.0837762548898096  2.2874975409822866 30.8610331632653150   T   T   T
  8.3310824420893148  2.2874975409822866 30.8610331632653150   T   T   T
 13.5783886292888205  2.2874975409822866 30.8610331632653150   T   T   T
  8.3966737694293094  8.3874909836017117 30.8610331632653150   T   T   T
 13.6439799566288151  8.3874909836017117 30.8610331632653150   T   T   T
  3.1493675822298011  8.3874909836017117 30.8610331632653150   T   T   T
  8.4622650967693041 14.4874844262211369 30.8610331632653150   T   T   T
 13.7095712839688062 14.4874844262211369 30.8610331632653150   T   T   T
 18.9568774711683155 14.4874844262211369 30.8610331632653185   T   T   T
  8.5278564241092987 20.5874778688405655 30.8610331632653043   T   T   T
 13.7751626113088008 20.5874778688405655 30.8610331632653079   T   T   T
 19.0224687985083065 20.5874778688405655 30.8610331632653079   T   T   T
  4.8363765214144436  2.2874975409822866 28.4985331632653143   T   T   T
 10.0836827086139476  2.2874975409822866 28.4985331632653143   T   T   T
 15.3309888958134533  2.2874975409822866 28.4985331632653143   T   T   T
 10.1492740359539440  8.3874909836017117 28.4985331632653143   T   T   T
 15.3965802231534461  8.3874909836017117 28.4985331632653143   T   T   T
  4.9019678487544356  8.3874909836017117 28.4985331632653143   T   T   T
 10.2148653632939386 14.4874844262211386 28.4985331632653143   T   T   T
 15.4621715504934407 14.4874844262211386 28.4985331632653143   T   T   T
  4.9675591760944311 14.4874844262211386 28.4985331632653143   T   T   T
 10.2804566906339332 20.5874778688405691 28.4985331632653143   T   T   T
 15.5277628778334353 20.5874778688405691 28.4985331632653178   T   T   T
  5.0331505034344239 20.5874778688405691 28.4985331632653143   T   T   T
  0.4437253294550586  0.7624991803274296 30.8610331632653150   T   T   T
  5.6910315166545642  0.7624991803274296 30.8610331632653150   T   T   T
 10.9383377038540690  0.7624991803274296 30.8610331632653150   T   T   T
  5.7566228439945579  6.8624926229468555 30.8610331632653150   T   T   T
 11.0039290311940636  6.8624926229468555 30.8610331632653150   T   T   T
 16.2512352183935711  6.8624926229468555 30.8610331632653150   T   T   T
  5.8222141713345517 12.9624860655662797 30.8610331632653150   T   T   T
 11.0695203585340582 12.9624860655662797 30.8610331632653150   T   T   T
 16.3168265457335551 12.9624860655662797 30.8610331632653150   T   T   T
  5.8878054986745463 19.0624795081857066 30.8610331632653043   T   T   T
 11.1351116858740511 19.0624795081857066 30.8610331632653043   T   T   T
 16.3824178730735568 19.0624795081857066 30.8610331632653079   T   T   T
  2.2291212596496912  3.8124959016371434 28.4985331632653143   T   T   T
  7.4764274468491960  3.8124959016371434 28.4985331632653143   T   T   T
 12.7237336340487008  3.8124959016371434 28.4985331632653143   T   T   T
  7.5420187741891898  9.9124893442565689 28.4985331632653143   T   T   T
 12.7893249613886937  9.9124893442565689 28.4985331632653143   T   T   T
  2.2947125869896841  9.9124893442565689 28.4985331632653143   T   T   T
  7.6076101015291862 16.0124827868759958 28.4985331632653143   T   T   T
 12.8549162887286883 16.0124827868759958 28.4985331632653143   T   T   T
 18.1022224759281976 16.0124827868759958 28.4985331632653178   T   T   T
  7.6732014288691781 22.1124762294954245 28.4985331632653143   T   T   T
 12.9205076160686794 22.1124762294954245 28.4985331632653178   T   T   T
 18.1678138032681922 22.1124762294954245 28.4985331632653178   T   T   T
 16.2184395547235702  3.8124959016371425 30.8610331632653150   T   T   T
  5.7238271803245633  3.8124959016371425 30.8610331632653150   T   T   T
 10.9711333675240681  3.8124959016371425 30.8610331632653150   T   T   T
  5.7894185076645552  9.9124893442565689 30.8610331632653150   T   T   T
 11.0367246948640592  9.9124893442565689 30.8610331632653150   T   T   T
 16.2840308820635649  9.9124893442565689 30.8610331632653150   T   T   T
  5.8550098350045499 16.0124827868759922 30.8610331632653150   T   T   T
 11.1023160222040520 16.0124827868759922 30.8610331632653150   T   T   T
 16.3496222094035559 16.0124827868759922 30.8610331632653185   T   T   T
  5.9206011623445436 22.1124762294954209 30.8610331632653150   T   T   T
 11.1679073495440484 22.1124762294954209 30.8610331632653150   T   T   T
 16.4152135367435541 22.1124762294954209 30.8610331632653185   T   T   T
  3.1165719185598073  5.3374942622919992 30.8610331632653150   T   T   T
  8.3638781057593139  5.3374942622919992 30.8610331632653150   T   T   T
 13.6111842929588178  5.3374942622919992 30.8610331632653150   T   T   T
  8.4294694330993050 11.4374877049114261 30.8610331632653150   T   T   T
 13.6767756202988053 11.4374877049114261 30.8610331632653150   T   T   T
  3.1821632458998002 11.4374877049114261 30.8610331632653150   T   T   T
  8.4950607604393014 17.5374811475308512 30.8610331632653150   T   T   T
 13.7423669476388053 17.5374811475308512 30.8610331632653150   T   T   T
 18.9896731348383057 17.5374811475308512 30.8610331632653185   T   T   T
  8.5606520877792924 23.6374745901502799 30.8610331632653150   T   T   T
 13.8079582749787981 23.6374745901502799 30.8610331632653185   T   T   T
 19.0552644621783074 23.6374745901502799 30.8610331632653185   T   T   T
  2.1963255959796939  0.7624991803274308 23.7735331632653093   T   T   T
  7.4436317831791978  0.7624991803274308 23.7735331632653093   T   T   T
 12.6909379703787053  0.7624991803274308 23.7735331632653093   T   T   T
  7.5092231105191933  6.8624926229468572 23.7735331632653093   T   T   T
 12.7565292977186964  6.8624926229468572 23.7735331632653093   T   T   T
  2.2619169233196885  6.8624926229468572 23.7735331632653093   T   T   T
  7.5748144378591853 12.9624860655662832 23.7735331632653093   T   T   T
 12.8221206250586928 12.9624860655662832 23.7735331632653093   T   T   T
 18.0694268122581967 12.9624860655662832 23.7735331632653093   T   T   T
  7.6404057651991817 19.0624795081857101 23.7735331632653093   T   T   T
 12.8877119523986856 19.0624795081857101 23.7735331632653093   T   T   T
 18.1350181395981984 19.0624795081857101 23.7735331632653129   T   T   T
  4.8691721850844427  5.3374942622920001 23.7735331632653093   T   T   T
 10.1164783722839484  5.3374942622920001 23.7735331632653093   T   T   T
 15.3637845594834541  5.3374942622920001 23.7735331632653093   T   T   T
 10.1820696996239430 11.4374877049114279 23.7735331632653093   T   T   T
 15.4293758868234452 11.4374877049114279 23.7735331632653093   T   T   T
  4.9347635124244320 11.4374877049114279 23.7735331632653093   T   T   T
 10.2476610269639359 17.5374811475308512 23.7735331632653093   T   T   T
 15.4949672141634398 17.5374811475308512 23.7735331632653129   T   T   T
  5.0003548397644266 17.5374811475308512 23.7735331632653093   T   T   T
 10.3132523543039305 23.6374745901502799 23.7735331632653129   T   T   T
 15.5605585415034327 23.6374745901502799 23.7735331632653129   T   T   T
 20.8078647287029348 23.6374745901502799 23.7735331632653129   T   T   T
  3.0837762548898100  2.2874975409822871 26.1360331632653065   T   T   T
  8.3310824420893148  2.2874975409822871 26.1360331632653065   T   T   T
 13.5783886292888205  2.2874975409822871 26.1360331632653065   T   T   T
  8.3966737694293112  8.3874909836017135 26.1360331632653171   T   T   T
 13.6439799566288151  8.3874909836017135 26.1360331632653171   T   T   T
  3.1493675822298011  8.3874909836017135 26.1360331632653171   T   T   T
  8.4622650967693041 14.4874844262211386 26.1360331632653171   T   T   T
 13.7095712839688080 14.4874844262211386 26.1360331632653171   T   T   T
 18.9568774711683155 14.4874844262211386 26.1360331632653207   T   T   T
  8.5278564241092987 20.5874778688405691 26.1360331632653065   T   T   T
 13.7751626113088026 20.5874778688405691 26.1360331632653100   T   T   T
 19.0224687985083065 20.5874778688405691 26.1360331632653100   T   T   T
  4.8363765214144436  2.2874975409822875 23.7735331632653093   T   T   T
 10.0836827086139493  2.2874975409822875 23.7735331632653093   T   T   T
 15.3309888958134550  2.2874975409822875 23.7735331632653093   T   T   T
 10.1492740359539457  8.3874909836017135 23.7735331632653093   T   T   T
 15.3965802231534461  8.3874909836017135 23.7735331632653093   T   T   T
  4.9019678487544356  8.3874909836017135 23.7735331632653093   T   T   T
 10.2148653632939386 14.4874844262211386 23.7735331632653093   T   T   T
 15.4621715504934407 14.4874844262211386 23.7735331632653093   T   T   T
  4.9675591760944311 14.4874844262211386 23.7735331632653093   T   T   T
 10.2804566906339332 20.5874778688405691 23.7735331632653093   T   T   T
 15.5277628778334371 20.5874778688405691 23.7735331632653129   T   T   T
  5.0331505034344231 20.5874778688405691 23.7735331632653093   T   T   T
  0.4437253294550589  0.7624991803274302 26.1360331632653065   T   T   T
  5.6910315166545642  0.7624991803274302 26.1360331632653065   T   T   T
 10.9383377038540690  0.7624991803274302 26.1360331632653065   T   T   T
  5.7566228439945588  6.8624926229468572 26.1360331632653065   T   T   T
 11.0039290311940618  6.8624926229468572 26.1360331632653065   T   T   T
 16.2512352183935675  6.8624926229468572 26.1360331632653065   T   T   T
  5.8222141713345534 12.9624860655662832 26.1360331632653171   T   T   T
 11.0695203585340547 12.9624860655662832 26.1360331632653171   T   T   T
 16.3168265457335586 12.9624860655662832 26.1360331632653171   T   T   T
  5.8878054986745472 19.0624795081857101 26.1360331632653065   T   T   T
 11.1351116858740511 19.0624795081857101 26.1360331632653065   T   T   T
 16.3824178730735568 19.0624795081857101 26.1360331632653100   T   T   T
  2.2291212596496917  3.8124959016371438 23.7735331632653093   T   T   T
  7.4764274468491960  3.8124959016371438 23.7735331632653093   T   T   T
 12.7237336340487026  3.8124959016371438 23.7735331632653093   T   T   T
  7.5420187741891898  9.9124893442565707 23.7735331632653093   T   T   T
 12.7893249613886972  9.9124893442565707 23.7735331632653093   T   T   T
  2.2947125869896845  9.9124893442565707 23.7735331632653093   T   T   T
  7.6076101015291844 16.0124827868759958 23.7735331632653093   T   T   T
 12.8549162887286883 16.0124827868759958 23.7735331632653093   T   T   T
 18.1022224759281976 16.0124827868759958 23.7735331632653129   T   T   T
  7.6732014288691772 22.1124762294954245 23.7735331632653093   T   T   T
 12.9205076160686811 22.1124762294954245 23.7735331632653129   T   T   T
 18.1678138032681922 22.1124762294954245 23.7735331632653129   T   T   T
 16.2184395547235738  3.8124959016371434 26.1360331632653065   T   T   T
  5.7238271803245615  3.8124959016371434 26.1360331632653065   T   T   T
 10.9711333675240681  3.8124959016371434 26.1360331632653065   T   T   T
  5.7894185076645552  9.9124893442565707 26.1360331632653171   T   T   T
 11.0367246948640592  9.9124893442565707 26.1360331632653171   T   T   T
 16.2840308820635649  9.9124893442565707 26.1360331632653171   T   T   T
  5.8550098350045499 16.0124827868759958 26.1360331632653171   T   T   T
 11.1023160222040538 16.0124827868759958 26.1360331632653171   T   T   T
 16.3496222094035559 16.0124827868759958 26.1360331632653207   T   T   T
  5.9206011623445427 22.1124762294954245 26.1360331632653065   T   T   T
 11.1679073495440466 22.1124762294954245 26.1360331632653065   T   T   T
 16.4152135367435541 22.1124762294954245 26.1360331632653100   T   T   T
  3.1165719185598073  5.3374942622920001 26.1360331632653171   T   T   T
  8.3638781057593139  5.3374942622920001 26.1360331632653171   T   T   T
 13.6111842929588178  5.3374942622920001 26.1360331632653171   T   T   T
  8.4294694330993050 11.4374877049114279 26.1360331632653171   T   T   T
 13.6767756202988071 11.4374877049114279 26.1360331632653171   T   T   T
  3.1821632458998010 11.4374877049114279 26.1360331632653171   T   T   T
  8.4950607604393031 17.5374811475308512 26.1360331632653171   T   T   T
 13.7423669476388053 17.5374811475308512 26.1360331632653171   T   T   T
 18.9896731348383128 17.5374811475308512 26.1360331632653207   T   T   T
  8.5606520877792960 23.6374745901502799 26.1360331632653065   T   T   T
 13.8079582749787981 23.6374745901502799 26.1360331632653100   T   T   T
 19.0552644621783074 23.6374745901502799 26.1360331632653100   T   T   T
  1.3364232945523751  2.2874975409822866 29.6797831632653129   T   T   T
  6.5837294817518810  2.2874975409822866 29.6797831632653129   T   T   T
 11.8310356689513885  2.2874975409822866 29.6797831632653129   T   T   T
  6.6493208090918738  8.3874909836017117 29.6797831632653057   T   T   T
 11.8966269962913760  8.3874909836017117 29.6797831632653057   T   T   T
 17.1439331834908799  8.3874909836017117 29.6797831632653057   T   T   T
  6.7149121364318685 14.4874844262211386 29.6797831632653129   T   T   T
 11.9622183236313759 14.4874844262211386 29.6797831632653129   T   T   T
 17.2095245108308745 14.4874844262211386 29.6797831632653129   T   T   T
  6.7805034637718631 20.5874778688405691 29.6797831632653057   T   T   T
 12.0278096509713706 20.5874778688405691 29.6797831632653057   T   T   T
 17.2751158381708692 20.5874778688405691 29.6797831632653093   T   T   T
  3.9764742199871268  3.8124959016371425 29.6797831632653129   T   T   T
  9.2237804071866307  3.8124959016371425 29.6797831632653129   T   T   T
 14.4710865943861400  3.8124959016371425 29.6797831632653129   T   T   T
  9.2893717345266253  9.9124893442565689 29.6797831632653057   T   T   T
 14.5366779217261275  9.9124893442565689 29.6797831632653057   T   T   T
  4.0420655473271188  9.9124893442565689 29.6797831632653057   T   T   T
  9.3549630618666182 16.0124827868759958 29.6797831632653129   T   T   T
 14.6022692490661257 16.0124827868759958 29.6797831632653129   T   T   T
  4.1076568746671143 16.0124827868759958 29.6797831632653129   T   T   T
  9.4205543892066110 22.1124762294954245 29.6797831632653129   T   T   T
 14.6678605764061203 22.1124762294954245 29.6797831632653164   T   T   T
 19.9151667636056260 22.1124762294954245 29.6797831632653164   T   T   T
  3.9436785563171299  0.7624991803274301 27.3172831632653157   T   T   T
  9.1909847435166334  0.7624991803274301 27.3172831632653157   T   T   T
 14.4382909307161409  0.7624991803274301 27.3172831632653157   T   T   T
  9.2565760708566280  6.8624926229468555 27.3172831632653157   T   T   T
 14.5038822580561302  6.8624926229468555 27.3172831632653157   T   T   T
  4.0092698836571241  6.8624926229468555 27.3172831632653157   T   T   T
  9.3221673981966209 12.9624860655662832 27.3172831632653157   T   T   T
 14.5694735853961284 12.9624860655662832 27.3172831632653157   T   T   T
  4.0748612109971161 12.9624860655662832 27.3172831632653157   T   T   T
  9.3877587255366155 19.0624795081857101 27.3172831632653157   T   T   T
 14.6350649127361248 19.0624795081857101 27.3172831632653192   T   T   T
 19.8823710999356287 19.0624795081857101 27.3172831632653192   T   T   T
  1.3692189582223717  5.3374942622920001 27.3172831632653157   T   T   T
  6.6165251454218756  5.3374942622920001 27.3172831632653157   T   T   T
 11.8638313326213822  5.3374942622920001 27.3172831632653157   T   T   T
  6.6821164727618720 11.4374877049114261 27.3172831632653157   T   T   T
 11.9294226599613715 11.4374877049114261 27.3172831632653157   T   T   T
 17.1767288471608772 11.4374877049114261 27.3172831632653157   T   T   T
  6.7477078001018658 17.5374811475308512 27.3172831632653157   T   T   T
 11.9950139873013732 17.5374811475308512 27.3172831632653157   T   T   T
 17.2423201745008718 17.5374811475308512 27.3172831632653192   T   T   T
  6.8132991274418595 23.6374745901502799 27.3172831632653157   T   T   T
 12.0606053146413679 23.6374745901502799 27.3172831632653192   T   T   T
 17.3079115018408665 23.6374745901502799 27.3172831632653192   T   T   T
  1.3364232945523749  2.2874975409822875 24.9547831632653079   T   T   T
  6.5837294817518810  2.2874975409822875 24.9547831632653079   T   T   T
 11.8310356689513885  2.2874975409822875 24.9547831632653079   T   T   T
  6.6493208090918738  8.3874909836017135 24.9547831632653150   T   T   T
 11.8966269962913778  8.3874909836017135 24.9547831632653150   T   T   T
 17.1439331834908835  8.3874909836017135 24.9547831632653150   T   T   T
  6.7149121364318685 14.4874844262211386 24.9547831632653150   T   T   T
 11.9622183236313724 14.4874844262211386 24.9547831632653150   T   T   T
 17.2095245108308745 14.4874844262211386 24.9547831632653150   T   T   T
  6.7805034637718613 20.5874778688405691 24.9547831632653079   T   T   T
 12.0278096509713706 20.5874778688405691 24.9547831632653079   T   T   T
 17.2751158381708692 20.5874778688405691 24.9547831632653114   T   T   T
  3.9764742199871268  3.8124959016371434 24.9547831632653079   T   T   T
  9.2237804071866307  3.8124959016371434 24.9547831632653079   T   T   T
 14.4710865943861400  3.8124959016371434 24.9547831632653079   T   T   T
  9.2893717345266253  9.9124893442565707 24.9547831632653150   T   T   T
 14.5366779217261293  9.9124893442565707 24.9547831632653150   T   T   T
  4.0420655473271196  9.9124893442565707 24.9547831632653150   T   T   T
  9.3549630618666182 16.0124827868759958 24.9547831632653150   T   T   T
 14.6022692490661257 16.0124827868759958 24.9547831632653150   T   T   T
  4.1076568746671152 16.0124827868759958 24.9547831632653150   T   T   T
  9.4205543892066110 22.1124762294954245 24.9547831632653079   T   T   T
 14.6678605764061203 22.1124762294954245 24.9547831632653114   T   T   T
 19.9151667636056260 22.1124762294954245 24.9547831632653114   T   T   T
  3.9436785563171299  0.7624991803274309 22.5922831632653107   T   T   T
  9.1909847435166352  0.7624991803274309 22.5922831632653107   T   T   T
 14.4382909307161427  0.7624991803274309 22.5922831632653107   T   T   T
  9.2565760708566280  6.8624926229468572 22.5922831632653107   T   T   T
 14.5038822580561337  6.8624926229468572 22.5922831632653107   T   T   T
  4.0092698836571241  6.8624926229468572 22.5922831632653107   T   T   T
  9.3221673981966227 12.9624860655662832 22.5922831632653107   T   T   T
 14.5694735853961284 12.9624860655662832 22.5922831632653107   T   T   T
  4.0748612109971161 12.9624860655662832 22.5922831632653107   T   T   T
  9.3877587255366173 19.0624795081857101 22.5922831632653107   T   T   T
 14.6350649127361248 19.0624795081857101 22.5922831632653143   T   T   T
 19.8823710999356287 19.0624795081857101 22.5922831632653143   T   T   T
  1.3692189582223722  5.3374942622920001 22.5922831632653107   T   T   T
  6.6165251454218765  5.3374942622920001 22.5922831632653107   T   T   T
 11.8638313326213858  5.3374942622920001 22.5922831632653107   T   T   T
  6.6821164727618729 11.4374877049114279 22.5922831632653143   T   T   T
 11.9294226599613769 11.4374877049114279 22.5922831632653143   T   T   T
 17.1767288471608772 11.4374877049114279 22.5922831632653143   T   T   T
  6.7477078001018658 17.5374811475308512 22.5922831632653107   T   T   T
 11.9950139873013732 17.5374811475308512 22.5922831632653107   T   T   T
 17.2423201745008718 17.5374811475308512 22.5922831632653143   T   T   T
  6.8132991274418586 23.6374745901502799 22.5922831632653107   T   T   T
 12.0606053146413679 23.6374745901502799 22.5922831632653143   T   T   T
 17.3079115018408665 23.6374745901502799 22.5922831632653143   T   T   T
  9.3294159358447040 10.7510075610503115 32.6610331632653157   T   T   T
  9.3294159358447040 13.1510075610503101 32.6610331632653157   T   T   T
 11.7294159358447025 10.7510075610503115 32.6610331632653157   T   T   T
 11.7294159358447025 13.1510075610503101 32.6610331632653157   T   T   T
