B  Mo B  Mo B  Mo B  Mo B  Mo B  Mo B  Mo B  Mo B  Mo B  Mo B  Mo B  Mo B  Mo B  Mo B  Mo B  Mo B  Mo B  Mo B  Mo B  Mo B  Mo B  Mo B  Mo B  Mo B  Mo B  Mo B  Mo B  Mo B  Mo B  Mo B  Mo B  Mo B  Mo B  Mo B  Mo B  Mo B  Mo B  Mo B  Mo B  Mo B  Mo B  Mo B  Mo B  Mo B  Mo B  Mo B  Mo B  Mo B 
 1.0000000000000000
    69.4975000000000023    0.0000000000000000    0.0000000000000043
     0.0000000000000015    9.3149999999999995    0.0000000000000006
     0.0000000000000000    0.0000000000000000   66.2823599999999828
 B   Mo  B   Mo  B   Mo  B   Mo  B   Mo  B   Mo  B   Mo  B   Mo  B   Mo  B   Mo  B   Mo  B   Mo  B   Mo  B   Mo  B   Mo  B   Mo  B   Mo  B   Mo  B   Mo  B   Mo  B   Mo  B   Mo  B   Mo  B   Mo  B   Mo  B   Mo  B   Mo  B   Mo  B   Mo  B   Mo  B   Mo  B   Mo  B   Mo  B   Mo  B   Mo  B   Mo  B   Mo  B   Mo  B   Mo  B   Mo  B   Mo  B   Mo  B   Mo  B   Mo  B   Mo  B   Mo  B   Mo  B   Mo  B  
  48   8   8   8   8   8   8   8   8   8   8   8   8   8   8   8   8   8   8   8   8   8   8   8   8   8   8   8   8   8   8   8   8   8   8   8   8   8   8   8   8   8   8   8   8   8   8   8   8   8   8   8   8   8   8   8   8   8   8   8   8   8   8   8   8   8   8   8   8   8   8   8   8   8   8   8   8   8   8   8   8   8   8   8   8   8   8   8   8   8   8   8   8   8   8   8  56
Selective dynamics
Cartesian
 21.5524999999999984  0.0000000000000000 22.9252399999999916   F   F   F
 21.5525000000000020  1.5525000000000000 18.6827399999999955   F   F   F
 20.0000000000000000  0.0000000000000000 22.1446199999999926   F   F   F
 21.5524999999999984  0.0000000000000000 17.9021199999999965   F   F   F
 20.0000000000000000  1.5525000000000000 31.4102399999999911   F   F   F
 20.0000000000000000  1.5525000000000000 26.3871199999999924   F   F   F
 21.5525000000000020  1.5525000000000000 30.6296199999999921   F   F   F
 20.0000000000000000  0.0000000000000000 27.1677399999999913   F   F   F
 21.5524999999999984  0.0000000000000000 39.8952399999999869   T   T   T
 21.5525000000000020  1.5525000000000000 35.6527399999999943   T   T   T
 20.0000000000000000  0.0000000000000000 39.1146199999999880   T   T   T
 21.5524999999999984  0.0000000000000000 34.8721199999999953   T   T   T
 20.0000000000000000  1.5525000000000000 48.3802399999999864   T   T   T
 20.0000000000000000  1.5525000000000000 43.3571199999999948   T   T   T
 21.5525000000000020  1.5525000000000000 47.5996199999999874   T   T   T
 20.0000000000000000  0.0000000000000000 44.1377399999999938   T   T   T
 21.5525000000000020  3.1050000000000000 22.9252399999999916   F   F   F
 21.5525000000000020  4.6574999999999998 18.6827399999999955   F   F   F
 20.0000000000000000  3.1050000000000000 22.1446199999999926   F   F   F
 21.5525000000000020  3.1050000000000000 17.9021199999999965   F   F   F
 20.0000000000000000  4.6574999999999998 31.4102399999999911   F   F   F
 20.0000000000000000  4.6574999999999998 26.3871199999999924   F   F   F
 21.5525000000000020  4.6574999999999998 30.6296199999999921   F   F   F
 20.0000000000000000  3.1050000000000000 27.1677399999999913   F   F   F
 21.5525000000000020  3.1050000000000000 39.8952399999999869   T   T   T
 21.5525000000000020  4.6574999999999998 35.6527399999999943   T   T   T
 20.0000000000000000  3.1050000000000000 39.1146199999999880   T   T   T
 21.5525000000000020  3.1050000000000000 34.8721199999999953   T   T   T
 20.0000000000000000  4.6574999999999998 48.3802399999999864   T   T   T
 20.0000000000000000  4.6574999999999998 43.3571199999999948   T   T   T
 21.5525000000000020  4.6574999999999998 47.5996199999999874   T   T   T
 20.0000000000000000  3.1050000000000000 44.1377399999999938   T   T   T
 21.5525000000000020  6.2100000000000000 22.9252399999999916   F   F   F
 21.5525000000000020  7.7625000000000002 18.6827399999999955   F   F   F
 20.0000000000000000  6.2100000000000000 22.1446199999999926   F   F   F
 21.5525000000000020  6.2100000000000000 17.9021199999999965   F   F   F
 20.0000000000000000  7.7625000000000002 31.4102399999999911   F   F   F
 20.0000000000000000  7.7625000000000002 26.3871199999999924   F   F   F
 21.5525000000000020  7.7625000000000002 30.6296199999999921   F   F   F
 20.0000000000000000  6.2100000000000000 27.1677399999999913   F   F   F
 21.5525000000000020  6.2100000000000000 39.8952399999999869   T   T   T
 21.5525000000000020  7.7625000000000002 35.6527399999999943   T   T   T
 20.0000000000000000  6.2100000000000000 39.1146199999999880   T   T   T
 21.5525000000000020  6.2100000000000000 34.8721199999999953   T   T   T
 20.0000000000000000  7.7625000000000002 48.3802399999999864   T   T   T
 20.0000000000000000  7.7625000000000002 43.3571199999999948   T   T   T
 21.5525000000000020  7.7625000000000002 47.5996199999999874   T   T   T
 20.0000000000000000  6.2100000000000000 44.1377399999999938   T   T   T
 24.6574999999999989  0.0000000000000000 25.5555899999999916   F   F   F
 24.6574999999999989  1.5525000000000000 21.3130899999999919   F   F   F
 23.1050000000000004  0.0000000000000000 19.5142699999999927   F   F   F
 24.6574999999999989  0.0000000000000000 32.2417699999999883   F   F   F
 23.1050000000000004  1.5525000000000000 17.0705899999999957   F   F   F
 23.1050000000000004  1.5525000000000000 23.7567699999999924   F   F   F
 24.6574999999999989  1.5525000000000000 27.9992699999999921   F   F   F
 23.1050000000000004  0.0000000000000000 29.7980899999999913   F   F   F
 24.6574999999999989  0.0000000000000000 22.9252399999999916   F   F   F
 24.6574999999999989  1.5525000000000000 18.6827399999999955   F   F   F
 23.1050000000000004  0.0000000000000000 22.1446199999999926   F   F   F
 24.6574999999999989  0.0000000000000000 17.9021199999999965   F   F   F
 23.1050000000000004  1.5525000000000000 31.4102399999999911   F   F   F
 23.1050000000000004  1.5525000000000000 26.3871199999999924   F   F   F
 24.6574999999999989  1.5525000000000000 30.6296199999999921   F   F   F
 23.1050000000000004  0.0000000000000000 27.1677399999999913   F   F   F
 24.6574999999999989  0.0000000000000000 42.5255899999999940   T   T   T
 24.6574999999999989  1.5525000000000000 38.2830899999999872   T   T   T
 23.1050000000000004  0.0000000000000000 36.4842699999999951   T   T   T
 24.6574999999999989  0.0000000000000000 49.2117699999999871   T   T   T
 23.1050000000000004  1.5525000000000000 34.0405899999999946   T   T   T
 23.1050000000000004  1.5525000000000000 40.7267699999999877   T   T   T
 24.6574999999999989  1.5525000000000000 44.9692699999999803   T   T   T
 23.1050000000000004  0.0000000000000000 46.7680899999999866   T   T   T
 24.6574999999999989  0.0000000000000000 39.8952399999999869   T   T   T
 24.6574999999999989  1.5525000000000000 35.6527399999999943   T   T   T
 23.1050000000000004  0.0000000000000000 39.1146199999999880   T   T   T
 24.6574999999999989  0.0000000000000000 34.8721199999999953   T   T   T
 23.1050000000000004  1.5525000000000000 48.3802399999999864   T   T   T
 23.1050000000000004  1.5525000000000000 43.3571199999999948   T   T   T
 24.6574999999999989  1.5525000000000000 47.5996199999999874   T   T   T
 23.1050000000000004  0.0000000000000000 44.1377399999999938   T   T   T
 24.6574999999999989  3.1050000000000000 25.5555899999999916   F   F   F
 24.6574999999999989  4.6574999999999998 21.3130899999999919   F   F   F
 23.1050000000000004  3.1050000000000000 19.5142699999999927   F   F   F
 24.6574999999999989  3.1050000000000000 32.2417699999999883   F   F   F
 23.1050000000000004  4.6574999999999998 17.0705899999999957   F   F   F
 23.1050000000000004  4.6574999999999998 23.7567699999999924   F   F   F
 24.6574999999999989  4.6574999999999998 27.9992699999999921   F   F   F
 23.1050000000000004  3.1050000000000000 29.7980899999999913   F   F   F
 24.6574999999999989  3.1050000000000000 22.9252399999999916   F   F   F
 24.6574999999999989  4.6574999999999998 18.6827399999999955   F   F   F
 23.1050000000000004  3.1050000000000000 22.1446199999999926   F   F   F
 24.6574999999999989  3.1050000000000000 17.9021199999999965   F   F   F
 23.1050000000000004  4.6574999999999998 31.4102399999999911   F   F   F
 23.1050000000000004  4.6574999999999998 26.3871199999999924   F   F   F
 24.6574999999999989  4.6574999999999998 30.6296199999999921   F   F   F
 23.1050000000000004  3.1050000000000000 27.1677399999999913   F   F   F
 24.6574999999999989  3.1050000000000000 42.5255899999999940   T   T   T
 24.6574999999999989  4.6574999999999998 38.2830899999999872   T   T   T
 23.1050000000000004  3.1050000000000000 36.4842699999999951   T   T   T
 24.6574999999999989  3.1050000000000000 49.2117699999999871   T   T   T
 23.1050000000000004  4.6574999999999998 34.0405899999999946   T   T   T
 23.1050000000000004  4.6574999999999998 40.7267699999999877   T   T   T
 24.6574999999999989  4.6574999999999998 44.9692699999999803   T   T   T
 23.1050000000000004  3.1050000000000000 46.7680899999999866   T   T   T
 24.6574999999999989  3.1050000000000000 39.8952399999999869   T   T   T
 24.6574999999999989  4.6574999999999998 35.6527399999999943   T   T   T
 23.1050000000000004  3.1050000000000000 39.1146199999999880   T   T   T
 24.6574999999999989  3.1050000000000000 34.8721199999999953   T   T   T
 23.1050000000000004  4.6574999999999998 48.3802399999999864   T   T   T
 23.1050000000000004  4.6574999999999998 43.3571199999999948   T   T   T
 24.6574999999999989  4.6574999999999998 47.5996199999999874   T   T   T
 23.1050000000000004  3.1050000000000000 44.1377399999999938   T   T   T
 24.6574999999999989  6.2100000000000000 25.5555899999999916   F   F   F
 24.6574999999999989  7.7625000000000002 21.3130899999999954   F   F   F
 23.1050000000000004  6.2100000000000000 19.5142699999999927   F   F   F
 24.6574999999999989  6.2100000000000000 32.2417699999999883   F   F   F
 23.1050000000000004  7.7625000000000002 17.0705899999999957   F   F   F
 23.1050000000000004  7.7625000000000002 23.7567699999999924   F   F   F
 24.6574999999999989  7.7625000000000002 27.9992699999999921   F   F   F
 23.1050000000000004  6.2100000000000000 29.7980899999999913   F   F   F
 24.6574999999999989  6.2100000000000000 22.9252399999999952   F   F   F
 24.6574999999999989  7.7625000000000002 18.6827399999999955   F   F   F
 23.1050000000000004  6.2100000000000000 22.1446199999999926   F   F   F
 24.6574999999999989  6.2100000000000000 17.9021199999999965   F   F   F
 23.1050000000000004  7.7625000000000002 31.4102399999999911   F   F   F
 23.1050000000000004  7.7625000000000002 26.3871199999999924   F   F   F
 24.6574999999999989  7.7625000000000002 30.6296199999999921   F   F   F
 23.1050000000000004  6.2100000000000000 27.1677399999999913   F   F   F
 24.6574999999999989  6.2100000000000000 42.5255899999999940   T   T   T
 24.6574999999999989  7.7625000000000002 38.2830899999999872   T   T   T
 23.1050000000000004  6.2100000000000000 36.4842699999999951   T   T   T
 24.6574999999999989  6.2100000000000000 49.2117699999999871   T   T   T
 23.1050000000000004  7.7625000000000002 34.0405899999999946   T   T   T
 23.1050000000000004  7.7625000000000002 40.7267699999999877   T   T   T
 24.6574999999999989  7.7625000000000002 44.9692699999999803   T   T   T
 23.1050000000000004  6.2100000000000000 46.7680899999999866   T   T   T
 24.6574999999999989  6.2100000000000000 39.8952399999999869   T   T   T
 24.6574999999999989  7.7625000000000002 35.6527399999999943   T   T   T
 23.1050000000000004  6.2100000000000000 39.1146199999999880   T   T   T
 24.6574999999999989  6.2100000000000000 34.8721199999999953   T   T   T
 23.1050000000000004  7.7625000000000002 48.3802399999999864   T   T   T
 23.1050000000000004  7.7625000000000002 43.3571199999999948   T   T   T
 24.6574999999999989  7.7625000000000002 47.5996199999999874   T   T   T
 23.1050000000000004  6.2100000000000000 44.1377399999999938   T   T   T
 27.7624999999999993  0.0000000000000000 25.5555899999999916   F   F   F
 27.7624999999999993  1.5525000000000000 21.3130899999999919   F   F   F
 26.2100000000000009  0.0000000000000000 19.5142699999999927   F   F   F
 27.7624999999999993  0.0000000000000000 32.2417699999999883   F   F   F
 26.2100000000000009  1.5525000000000000 17.0705899999999957   F   F   F
 26.2100000000000009  1.5525000000000000 23.7567699999999924   F   F   F
 27.7624999999999993  1.5525000000000000 27.9992699999999921   F   F   F
 26.2100000000000009  0.0000000000000000 29.7980899999999913   F   F   F
 27.7624999999999993  0.0000000000000000 22.9252399999999916   F   F   F
 27.7624999999999993  1.5525000000000000 18.6827399999999955   F   F   F
 26.2100000000000009  0.0000000000000000 22.1446199999999926   F   F   F
 27.7624999999999993  0.0000000000000000 17.9021199999999965   F   F   F
 26.2100000000000009  1.5525000000000000 31.4102399999999911   F   F   F
 26.2100000000000009  1.5525000000000000 26.3871199999999924   F   F   F
 27.7624999999999993  1.5525000000000000 30.6296199999999921   F   F   F
 26.2100000000000009  0.0000000000000000 27.1677399999999913   F   F   F
 27.7624999999999993  0.0000000000000000 42.5255899999999940   T   T   T
 27.7624999999999993  1.5525000000000000 38.2830899999999872   T   T   T
 26.2100000000000009  0.0000000000000000 36.4842699999999951   T   T   T
 27.7624999999999993  0.0000000000000000 49.2117699999999871   T   T   T
 26.2100000000000009  1.5525000000000000 34.0405899999999946   T   T   T
 26.2100000000000009  1.5525000000000000 40.7267699999999877   T   T   T
 27.7624999999999993  1.5525000000000000 44.9692699999999803   T   T   T
 26.2100000000000009  0.0000000000000000 46.7680899999999866   T   T   T
 27.7624999999999993  0.0000000000000000 39.8952399999999869   T   T   T
 27.7624999999999993  1.5525000000000000 35.6527399999999943   T   T   T
 26.2100000000000009  0.0000000000000000 39.1146199999999880   T   T   T
 27.7624999999999993  0.0000000000000000 34.8721199999999953   T   T   T
 26.2100000000000009  1.5525000000000000 48.3802399999999864   T   T   T
 26.2100000000000009  1.5525000000000000 43.3571199999999948   T   T   T
 27.7624999999999993  1.5525000000000000 47.5996199999999874   T   T   T
 26.2100000000000009  0.0000000000000000 44.1377399999999938   T   T   T
 27.7625000000000028  3.1050000000000000 25.5555899999999916   F   F   F
 27.7625000000000028  4.6574999999999998 21.3130899999999954   F   F   F
 26.2100000000000009  3.1050000000000000 19.5142699999999927   F   F   F
 27.7625000000000028  3.1050000000000000 32.2417699999999883   F   F   F
 26.2100000000000009  4.6574999999999998 17.0705899999999957   F   F   F
 26.2100000000000009  4.6574999999999998 23.7567699999999924   F   F   F
 27.7625000000000028  4.6574999999999998 27.9992699999999921   F   F   F
 26.2100000000000009  3.1050000000000000 29.7980899999999913   F   F   F
 27.7625000000000028  3.1050000000000000 22.9252399999999952   F   F   F
 27.7625000000000028  4.6574999999999998 18.6827399999999955   F   F   F
 26.2100000000000009  3.1050000000000000 22.1446199999999926   F   F   F
 27.7625000000000028  3.1050000000000000 17.9021199999999965   F   F   F
 26.2100000000000009  4.6574999999999998 31.4102399999999911   F   F   F
 26.2100000000000009  4.6574999999999998 26.3871199999999924   F   F   F
 27.7625000000000028  4.6574999999999998 30.6296199999999921   F   F   F
 26.2100000000000009  3.1050000000000000 27.1677399999999913   F   F   F
 27.7625000000000028  3.1050000000000000 42.5255899999999940   T   T   T
 27.7625000000000028  4.6574999999999998 38.2830899999999872   T   T   T
 26.2100000000000009  3.1050000000000000 36.4842699999999951   T   T   T
 27.7625000000000028  3.1050000000000000 49.2117699999999871   T   T   T
 26.2100000000000009  4.6574999999999998 34.0405899999999946   T   T   T
 26.2100000000000009  4.6574999999999998 40.7267699999999877   T   T   T
 27.7625000000000028  4.6574999999999998 44.9692699999999803   T   T   T
 26.2100000000000009  3.1050000000000000 46.7680899999999866   T   T   T
 27.7625000000000028  3.1050000000000000 39.8952399999999869   T   T   T
 27.7625000000000028  4.6574999999999998 35.6527399999999943   T   T   T
 26.2100000000000009  3.1050000000000000 39.1146199999999880   T   T   T
 27.7625000000000028  3.1050000000000000 34.8721199999999953   T   T   T
 26.2100000000000009  4.6574999999999998 48.3802399999999864   T   T   T
 26.2100000000000009  4.6574999999999998 43.3571199999999948   T   T   T
 27.7625000000000028  4.6574999999999998 47.5996199999999874   T   T   T
 26.2100000000000009  3.1050000000000000 44.1377399999999938   T   T   T
 27.7625000000000028  6.2100000000000000 25.5555899999999916   F   F   F
 27.7625000000000028  7.7625000000000002 21.3130899999999954   F   F   F
 26.2100000000000009  6.2100000000000000 19.5142699999999962   F   F   F
 27.7625000000000028  6.2100000000000000 32.2417699999999883   F   F   F
 26.2100000000000009  7.7625000000000002 17.0705899999999957   F   F   F
 26.2100000000000009  7.7625000000000002 23.7567699999999924   F   F   F
 27.7625000000000028  7.7625000000000002 27.9992699999999921   F   F   F
 26.2100000000000009  6.2100000000000000 29.7980899999999913   F   F   F
 27.7625000000000028  6.2100000000000000 22.9252399999999952   F   F   F
 27.7625000000000028  7.7625000000000002 18.6827399999999955   F   F   F
 26.2100000000000009  6.2100000000000000 22.1446199999999926   F   F   F
 27.7625000000000028  6.2100000000000000 17.9021199999999965   F   F   F
 26.2100000000000009  7.7625000000000002 31.4102399999999911   F   F   F
 26.2100000000000009  7.7625000000000002 26.3871199999999924   F   F   F
 27.7625000000000028  7.7625000000000002 30.6296199999999921   F   F   F
 26.2100000000000009  6.2100000000000000 27.1677399999999913   F   F   F
 27.7625000000000028  6.2100000000000000 42.5255899999999940   T   T   T
 27.7625000000000028  7.7625000000000002 38.2830899999999872   T   T   T
 26.2100000000000009  6.2100000000000000 36.4842699999999951   T   T   T
 27.7625000000000028  6.2100000000000000 49.2117699999999871   T   T   T
 26.2100000000000009  7.7625000000000002 34.0405899999999946   T   T   T
 26.2100000000000009  7.7625000000000002 40.7267699999999877   T   T   T
 27.7625000000000028  7.7625000000000002 44.9692699999999803   T   T   T
 26.2100000000000009  6.2100000000000000 46.7680899999999866   T   T   T
 27.7625000000000028  6.2100000000000000 39.8952399999999869   T   T   T
 27.7625000000000028  7.7625000000000002 35.6527399999999943   T   T   T
 26.2100000000000009  6.2100000000000000 39.1146199999999880   T   T   T
 27.7625000000000028  6.2100000000000000 34.8721199999999953   T   T   T
 26.2100000000000009  7.7625000000000002 48.3802399999999864   T   T   T
 26.2100000000000009  7.7625000000000002 43.3571199999999948   T   T   T
 27.7625000000000028  7.7625000000000002 47.5996199999999874   T   T   T
 26.2100000000000009  6.2100000000000000 44.1377399999999938   T   T   T
 30.8674999999999997  0.0000000000000000 25.5555899999999916   F   F   F
 30.8674999999999997  1.5525000000000000 21.3130899999999954   F   F   F
 29.3149999999999977  0.0000000000000000 19.5142699999999927   F   F   F
 30.8674999999999997  0.0000000000000000 32.2417699999999883   F   F   F
 29.3149999999999977  1.5525000000000000 17.0705899999999957   F   F   F
 29.3149999999999977  1.5525000000000000 23.7567699999999924   F   F   F
 30.8674999999999997  1.5525000000000000 27.9992699999999921   F   F   F
 29.3149999999999977  0.0000000000000000 29.7980899999999913   F   F   F
 30.8674999999999997  0.0000000000000000 22.9252399999999952   F   F   F
 30.8674999999999997  1.5525000000000000 18.6827399999999955   F   F   F
 29.3149999999999977  0.0000000000000000 22.1446199999999926   F   F   F
 30.8674999999999997  0.0000000000000000 17.9021199999999965   F   F   F
 29.3149999999999977  1.5525000000000000 31.4102399999999911   F   F   F
 29.3149999999999977  1.5525000000000000 26.3871199999999924   F   F   F
 30.8674999999999997  1.5525000000000000 30.6296199999999921   F   F   F
 29.3149999999999977  0.0000000000000000 27.1677399999999913   F   F   F
 30.8674999999999997  0.0000000000000000 42.5255899999999940   T   T   T
 30.8674999999999997  1.5525000000000000 38.2830899999999872   T   T   T
 29.3149999999999977  0.0000000000000000 36.4842699999999951   T   T   T
 30.8674999999999997  0.0000000000000000 49.2117699999999871   T   T   T
 29.3149999999999977  1.5525000000000000 34.0405899999999946   T   T   T
 29.3149999999999977  1.5525000000000000 40.7267699999999877   T   T   T
 30.8674999999999997  1.5525000000000000 44.9692699999999803   T   T   T
 29.3149999999999977  0.0000000000000000 46.7680899999999866   T   T   T
 30.8674999999999997  0.0000000000000000 39.8952399999999869   T   T   T
 30.8674999999999997  1.5525000000000000 35.6527399999999943   T   T   T
 29.3149999999999977  0.0000000000000000 39.1146199999999880   T   T   T
 30.8674999999999997  0.0000000000000000 34.8721199999999953   T   T   T
 29.3149999999999977  1.5525000000000000 48.3802399999999864   T   T   T
 29.3149999999999977  1.5525000000000000 43.3571199999999948   T   T   T
 30.8674999999999997  1.5525000000000000 47.5996199999999874   T   T   T
 29.3149999999999977  0.0000000000000000 44.1377399999999938   T   T   T
 30.8674999999999997  3.1050000000000000 25.5555899999999916   F   F   F
 30.8674999999999997  4.6574999999999998 21.3130899999999954   F   F   F
 29.3149999999999977  3.1050000000000000 19.5142699999999962   F   F   F
 30.8674999999999997  3.1050000000000000 32.2417699999999883   F   F   F
 29.3149999999999977  4.6574999999999998 17.0705899999999957   F   F   F
 29.3149999999999977  4.6574999999999998 23.7567699999999924   F   F   F
 30.8674999999999997  4.6574999999999998 27.9992699999999921   F   F   F
 29.3149999999999977  3.1050000000000000 29.7980899999999913   F   F   F
 30.8674999999999997  3.1050000000000000 22.9252399999999952   F   F   F
 30.8674999999999997  4.6574999999999998 18.6827399999999955   F   F   F
 29.3149999999999977  3.1050000000000000 22.1446199999999926   F   F   F
 30.8674999999999997  3.1050000000000000 17.9021199999999965   F   F   F
 29.3149999999999977  4.6574999999999998 31.4102399999999911   F   F   F
 29.3149999999999977  4.6574999999999998 26.3871199999999924   F   F   F
 30.8674999999999997  4.6574999999999998 30.6296199999999921   F   F   F
 29.3149999999999977  3.1050000000000000 27.1677399999999913   F   F   F
 30.8674999999999997  3.1050000000000000 42.5255899999999940   T   T   T
 30.8674999999999997  4.6574999999999998 38.2830899999999872   T   T   T
 29.3149999999999977  3.1050000000000000 36.4842699999999951   T   T   T
 30.8674999999999997  3.1050000000000000 49.2117699999999871   T   T   T
 29.3149999999999977  4.6574999999999998 34.0405899999999946   T   T   T
 29.3149999999999977  4.6574999999999998 40.7267699999999877   T   T   T
 30.8674999999999997  4.6574999999999998 44.9692699999999803   T   T   T
 29.3149999999999977  3.1050000000000000 46.7680899999999866   T   T   T
 30.8674999999999997  3.1050000000000000 39.8952399999999869   T   T   T
 30.8674999999999997  4.6574999999999998 35.6527399999999943   T   T   T
 29.3149999999999977  3.1050000000000000 39.1146199999999880   T   T   T
 30.8674999999999997  3.1050000000000000 34.8721199999999953   T   T   T
 29.3149999999999977  4.6574999999999998 48.3802399999999864   T   T   T
 29.3149999999999977  4.6574999999999998 43.3571199999999948   T   T   T
 30.8674999999999997  4.6574999999999998 47.5996199999999874   T   T   T
 29.3149999999999977  3.1050000000000000 44.1377399999999938   T   T   T
 30.8674999999999997  6.2100000000000000 25.5555899999999951   F   F   F
 30.8674999999999997  7.7625000000000002 21.3130899999999954   F   F   F
 29.3150000000000013  6.2100000000000000 19.5142699999999962   F   F   F
 30.8674999999999997  6.2100000000000000 32.2417699999999883   F   F   F
 29.3150000000000013  7.7625000000000002 17.0705899999999957   F   F   F
 29.3150000000000013  7.7625000000000002 23.7567699999999924   F   F   F
 30.8674999999999997  7.7625000000000002 27.9992699999999921   F   F   F
 29.3150000000000013  6.2100000000000000 29.7980899999999913   F   F   F
 30.8674999999999997  6.2100000000000000 22.9252399999999952   F   F   F
 30.8674999999999997  7.7625000000000002 18.6827399999999955   F   F   F
 29.3150000000000013  6.2100000000000000 22.1446199999999926   F   F   F
 30.8674999999999997  6.2100000000000000 17.9021199999999965   F   F   F
 29.3150000000000013  7.7625000000000002 31.4102399999999911   F   F   F
 29.3150000000000013  7.7625000000000002 26.3871199999999959   F   F   F
 30.8674999999999997  7.7625000000000002 30.6296199999999921   F   F   F
 29.3150000000000013  6.2100000000000000 27.1677399999999949   F   F   F
 30.8674999999999997  6.2100000000000000 42.5255899999999940   T   T   T
 30.8674999999999997  7.7625000000000002 38.2830899999999872   T   T   T
 29.3150000000000013  6.2100000000000000 36.4842699999999951   T   T   T
 30.8674999999999997  6.2100000000000000 49.2117699999999871   T   T   T
 29.3150000000000013  7.7625000000000002 34.0405899999999946   T   T   T
 29.3150000000000013  7.7625000000000002 40.7267699999999877   T   T   T
 30.8674999999999997  7.7625000000000002 44.9692699999999803   T   T   T
 29.3150000000000013  6.2100000000000000 46.7680899999999866   T   T   T
 30.8674999999999997  6.2100000000000000 39.8952399999999869   T   T   T
 30.8674999999999997  7.7625000000000002 35.6527399999999943   T   T   T
 29.3150000000000013  6.2100000000000000 39.1146199999999880   T   T   T
 30.8674999999999997  6.2100000000000000 34.8721199999999953   T   T   T
 29.3150000000000013  7.7625000000000002 48.3802399999999864   T   T   T
 29.3150000000000013  7.7625000000000002 43.3571199999999948   T   T   T
 30.8674999999999997  7.7625000000000002 47.5996199999999874   T   T   T
 29.3150000000000013  6.2100000000000000 44.1377399999999938   T   T   T
 33.9724999999999966  0.0000000000000000 25.5555899999999916   F   F   F
 33.9724999999999966  1.5525000000000000 21.3130899999999954   F   F   F
 32.4200000000000017  0.0000000000000000 19.5142699999999962   F   F   F
 33.9724999999999966  0.0000000000000000 32.2417699999999883   F   F   F
 32.4200000000000017  1.5525000000000000 17.0705899999999957   F   F   F
 32.4200000000000017  1.5525000000000000 23.7567699999999924   F   F   F
 33.9724999999999966  1.5525000000000000 27.9992699999999921   F   F   F
 32.4200000000000017  0.0000000000000000 29.7980899999999913   F   F   F
 33.9724999999999966  0.0000000000000000 22.9252399999999952   F   F   F
 33.9724999999999966  1.5525000000000000 18.6827399999999955   F   F   F
 32.4200000000000017  0.0000000000000000 22.1446199999999926   F   F   F
 33.9724999999999966  0.0000000000000000 17.9021199999999965   F   F   F
 32.4200000000000017  1.5525000000000000 31.4102399999999911   F   F   F
 32.4200000000000017  1.5525000000000000 26.3871199999999924   F   F   F
 33.9724999999999966  1.5525000000000000 30.6296199999999921   F   F   F
 32.4200000000000017  0.0000000000000000 27.1677399999999913   F   F   F
 33.9724999999999966  0.0000000000000000 42.5255899999999940   T   T   T
 33.9724999999999966  1.5525000000000000 38.2830899999999872   T   T   T
 32.4200000000000017  0.0000000000000000 36.4842699999999951   T   T   T
 33.9724999999999966  0.0000000000000000 49.2117699999999871   T   T   T
 32.4200000000000017  1.5525000000000000 34.0405899999999946   T   T   T
 32.4200000000000017  1.5525000000000000 40.7267699999999877   T   T   T
 33.9724999999999966  1.5525000000000000 44.9692699999999803   T   T   T
 32.4200000000000017  0.0000000000000000 46.7680899999999866   T   T   T
 33.9724999999999966  0.0000000000000000 39.8952399999999869   T   T   T
 33.9724999999999966  1.5525000000000000 35.6527399999999943   T   T   T
 32.4200000000000017  0.0000000000000000 39.1146199999999880   T   T   T
 33.9724999999999966  0.0000000000000000 34.8721199999999953   T   T   T
 32.4200000000000017  1.5525000000000000 48.3802399999999864   T   T   T
 32.4200000000000017  1.5525000000000000 43.3571199999999948   T   T   T
 33.9724999999999966  1.5525000000000000 47.5996199999999874   T   T   T
 32.4200000000000017  0.0000000000000000 44.1377399999999938   T   T   T
 33.9724999999999966  3.1050000000000000 25.5555899999999951   F   F   F
 33.9724999999999966  4.6574999999999998 21.3130899999999954   F   F   F
 32.4200000000000017  3.1050000000000000 19.5142699999999962   F   F   F
 33.9724999999999966  3.1050000000000000 32.2417699999999883   F   F   F
 32.4200000000000017  4.6574999999999998 17.0705899999999957   F   F   F
 32.4200000000000017  4.6574999999999998 23.7567699999999924   F   F   F
 33.9724999999999966  4.6574999999999998 27.9992699999999921   F   F   F
 32.4200000000000017  3.1050000000000000 29.7980899999999913   F   F   F
 33.9724999999999966  3.1050000000000000 22.9252399999999952   F   F   F
 33.9724999999999966  4.6574999999999998 18.6827399999999955   F   F   F
 32.4200000000000017  3.1050000000000000 22.1446199999999926   F   F   F
 33.9724999999999966  3.1050000000000000 17.9021199999999965   F   F   F
 32.4200000000000017  4.6574999999999998 31.4102399999999911   F   F   F
 32.4200000000000017  4.6574999999999998 26.3871199999999959   F   F   F
 33.9724999999999966  4.6574999999999998 30.6296199999999921   F   F   F
 32.4200000000000017  3.1050000000000000 27.1677399999999949   F   F   F
 33.9724999999999966  3.1050000000000000 42.5255899999999940   T   T   T
 33.9724999999999966  4.6574999999999998 38.2830899999999872   T   T   T
 32.4200000000000017  3.1050000000000000 36.4842699999999951   T   T   T
 33.9724999999999966  3.1050000000000000 49.2117699999999871   T   T   T
 32.4200000000000017  4.6574999999999998 34.0405899999999946   T   T   T
 32.4200000000000017  4.6574999999999998 40.7267699999999877   T   T   T
 33.9724999999999966  4.6574999999999998 44.9692699999999803   T   T   T
 32.4200000000000017  3.1050000000000000 46.7680899999999866   T   T   T
 33.9724999999999966  3.1050000000000000 39.8952399999999869   T   T   T
 33.9724999999999966  4.6574999999999998 35.6527399999999943   T   T   T
 32.4200000000000017  3.1050000000000000 39.1146199999999880   T   T   T
 33.9724999999999966  3.1050000000000000 34.8721199999999953   T   T   T
 32.4200000000000017  4.6574999999999998 48.3802399999999864   T   T   T
 32.4200000000000017  4.6574999999999998 43.3571199999999948   T   T   T
 33.9724999999999966  4.6574999999999998 47.5996199999999874   T   T   T
 32.4200000000000017  3.1050000000000000 44.1377399999999938   T   T   T
 33.9725000000000037  6.2100000000000000 25.5555899999999951   F   F   F
 33.9725000000000037  7.7625000000000002 21.3130899999999954   F   F   F
 32.4200000000000017  6.2100000000000000 19.5142699999999962   F   F   F
 33.9725000000000037  6.2100000000000000 32.2417699999999883   F   F   F
 32.4200000000000017  7.7625000000000002 17.0705899999999957   F   F   F
 32.4200000000000017  7.7625000000000002 23.7567699999999924   F   F   F
 33.9725000000000037  7.7625000000000002 27.9992699999999921   F   F   F
 32.4200000000000017  6.2100000000000000 29.7980899999999913   F   F   F
 33.9725000000000037  6.2100000000000000 22.9252399999999952   F   F   F
 33.9725000000000037  7.7625000000000002 18.6827399999999955   F   F   F
 32.4200000000000017  6.2100000000000000 22.1446199999999926   F   F   F
 33.9725000000000037  6.2100000000000000 17.9021199999999965   F   F   F
 32.4200000000000017  7.7625000000000002 31.4102399999999911   F   F   F
 32.4200000000000017  7.7625000000000002 26.3871199999999959   F   F   F
 33.9725000000000037  7.7625000000000002 30.6296199999999921   F   F   F
 32.4200000000000017  6.2100000000000000 27.1677399999999949   F   F   F
 33.9725000000000037  6.2100000000000000 42.5255899999999940   T   T   T
 33.9725000000000037  7.7625000000000002 38.2830899999999872   T   T   T
 32.4200000000000017  6.2100000000000000 36.4842699999999951   T   T   T
 33.9725000000000037  6.2100000000000000 49.2117699999999871   T   T   T
 32.4200000000000017  7.7625000000000002 34.0405899999999946   T   T   T
 32.4200000000000017  7.7625000000000002 40.7267699999999877   T   T   T
 33.9725000000000037  7.7625000000000002 44.9692699999999803   T   T   T
 32.4200000000000017  6.2100000000000000 46.7680899999999866   T   T   T
 33.9725000000000037  6.2100000000000000 39.8952399999999869   T   T   T
 33.9725000000000037  7.7625000000000002 35.6527399999999943   T   T   T
 32.4200000000000017  6.2100000000000000 39.1146199999999880   T   T   T
 33.9725000000000037  6.2100000000000000 34.8721199999999953   T   T   T
 32.4200000000000017  7.7625000000000002 48.3802399999999864   T   T   T
 32.4200000000000017  7.7625000000000002 43.3571199999999948   T   T   T
 33.9725000000000037  7.7625000000000002 47.5996199999999874   T   T   T
 32.4200000000000017  6.2100000000000000 44.1377399999999938   T   T   T
 37.0775000000000006  0.0000000000000000 25.5555899999999951   F   F   F
 37.0775000000000006  1.5525000000000000 21.3130899999999954   F   F   F
 35.5249999999999986  0.0000000000000000 19.5142699999999962   F   F   F
 37.0775000000000006  0.0000000000000000 32.2417699999999883   F   F   F
 35.5249999999999986  1.5525000000000000 17.0705899999999957   F   F   F
 35.5249999999999986  1.5525000000000000 23.7567699999999924   F   F   F
 37.0775000000000006  1.5525000000000000 27.9992699999999921   F   F   F
 35.5249999999999986  0.0000000000000000 29.7980899999999913   F   F   F
 37.0775000000000006  0.0000000000000000 22.9252399999999952   F   F   F
 37.0775000000000006  1.5525000000000000 18.6827399999999955   F   F   F
 35.5249999999999986  0.0000000000000000 22.1446199999999926   F   F   F
 37.0775000000000006  0.0000000000000000 17.9021199999999965   F   F   F
 35.5249999999999986  1.5525000000000000 31.4102399999999911   F   F   F
 35.5249999999999986  1.5525000000000000 26.3871199999999959   F   F   F
 37.0775000000000006  1.5525000000000000 30.6296199999999921   F   F   F
 35.5249999999999986  0.0000000000000000 27.1677399999999949   F   F   F
 37.0775000000000006  0.0000000000000000 42.5255899999999940   T   T   T
 37.0775000000000006  1.5525000000000000 38.2830899999999872   T   T   T
 35.5249999999999986  0.0000000000000000 36.4842699999999951   T   T   T
 37.0775000000000006  0.0000000000000000 49.2117699999999871   T   T   T
 35.5249999999999986  1.5525000000000000 34.0405899999999946   T   T   T
 35.5249999999999986  1.5525000000000000 40.7267699999999877   T   T   T
 37.0775000000000006  1.5525000000000000 44.9692699999999803   T   T   T
 35.5249999999999986  0.0000000000000000 46.7680899999999866   T   T   T
 37.0775000000000006  0.0000000000000000 39.8952399999999869   T   T   T
 37.0775000000000006  1.5525000000000000 35.6527399999999943   T   T   T
 35.5249999999999986  0.0000000000000000 39.1146199999999880   T   T   T
 37.0775000000000006  0.0000000000000000 34.8721199999999953   T   T   T
 35.5249999999999986  1.5525000000000000 48.3802399999999864   T   T   T
 35.5249999999999986  1.5525000000000000 43.3571199999999948   T   T   T
 37.0775000000000006  1.5525000000000000 47.5996199999999874   T   T   T
 35.5249999999999986  0.0000000000000000 44.1377399999999938   T   T   T
 37.0775000000000006  3.1050000000000000 25.5555899999999951   F   F   F
 37.0775000000000006  4.6574999999999998 21.3130899999999954   F   F   F
 35.5249999999999986  3.1050000000000000 19.5142699999999962   F   F   F
 37.0775000000000006  3.1050000000000000 32.2417699999999883   F   F   F
 35.5249999999999986  4.6574999999999998 17.0705899999999957   F   F   F
 35.5249999999999986  4.6574999999999998 23.7567699999999924   F   F   F
 37.0775000000000006  4.6574999999999998 27.9992699999999921   F   F   F
 35.5249999999999986  3.1050000000000000 29.7980899999999913   F   F   F
 37.0775000000000006  3.1050000000000000 22.9252399999999952   F   F   F
 37.0775000000000006  4.6574999999999998 18.6827399999999955   F   F   F
 35.5249999999999986  3.1050000000000000 22.1446199999999926   F   F   F
 37.0775000000000006  3.1050000000000000 17.9021199999999965   F   F   F
 35.5249999999999986  4.6574999999999998 31.4102399999999911   F   F   F
 35.5249999999999986  4.6574999999999998 26.3871199999999959   F   F   F
 37.0775000000000006  4.6574999999999998 30.6296199999999921   F   F   F
 35.5249999999999986  3.1050000000000000 27.1677399999999949   F   F   F
 37.0775000000000006  3.1050000000000000 42.5255899999999940   T   T   T
 37.0775000000000006  4.6574999999999998 38.2830899999999872   T   T   T
 35.5249999999999986  3.1050000000000000 36.4842699999999951   T   T   T
 37.0775000000000006  3.1050000000000000 49.2117699999999871   T   T   T
 35.5249999999999986  4.6574999999999998 34.0405899999999946   T   T   T
 35.5249999999999986  4.6574999999999998 40.7267699999999877   T   T   T
 37.0775000000000006  4.6574999999999998 44.9692699999999803   T   T   T
 35.5249999999999986  3.1050000000000000 46.7680899999999866   T   T   T
 37.0775000000000006  3.1050000000000000 39.8952399999999869   T   T   T
 37.0775000000000006  4.6574999999999998 35.6527399999999943   T   T   T
 35.5249999999999986  3.1050000000000000 39.1146199999999880   T   T   T
 37.0775000000000006  3.1050000000000000 34.8721199999999953   T   T   T
 35.5249999999999986  4.6574999999999998 48.3802399999999864   T   T   T
 35.5249999999999986  4.6574999999999998 43.3571199999999948   T   T   T
 37.0775000000000006  4.6574999999999998 47.5996199999999874   T   T   T
 35.5249999999999986  3.1050000000000000 44.1377399999999938   T   T   T
 37.0775000000000006  6.2100000000000000 25.5555899999999951   F   F   F
 37.0775000000000006  7.7625000000000002 21.3130899999999954   F   F   F
 35.5250000000000057  6.2100000000000000 19.5142699999999962   F   F   F
 37.0775000000000006  6.2100000000000000 32.2417699999999883   F   F   F
 35.5250000000000057  7.7625000000000002 17.0705899999999957   F   F   F
 35.5250000000000057  7.7625000000000002 23.7567699999999924   F   F   F
 37.0775000000000006  7.7625000000000002 27.9992699999999921   F   F   F
 35.5250000000000057  6.2100000000000000 29.7980899999999913   F   F   F
 37.0775000000000006  6.2100000000000000 22.9252399999999952   F   F   F
 37.0775000000000006  7.7625000000000002 18.6827399999999955   F   F   F
 35.5250000000000057  6.2100000000000000 22.1446199999999926   F   F   F
 37.0775000000000006  6.2100000000000000 17.9021199999999965   F   F   F
 35.5250000000000057  7.7625000000000002 31.4102399999999911   F   F   F
 35.5250000000000057  7.7625000000000002 26.3871199999999959   F   F   F
 37.0775000000000006  7.7625000000000002 30.6296199999999921   F   F   F
 35.5250000000000057  6.2100000000000000 27.1677399999999949   F   F   F
 37.0775000000000006  6.2100000000000000 42.5255899999999940   T   T   T
 37.0775000000000006  7.7625000000000002 38.2830899999999872   T   T   T
 35.5250000000000057  6.2100000000000000 36.4842699999999951   T   T   T
 37.0775000000000006  6.2100000000000000 49.2117699999999871   T   T   T
 35.5250000000000057  7.7625000000000002 34.0405899999999946   T   T   T
 35.5250000000000057  7.7625000000000002 40.7267699999999877   T   T   T
 37.0775000000000006  7.7625000000000002 44.9692699999999803   T   T   T
 35.5250000000000057  6.2100000000000000 46.7680899999999866   T   T   T
 37.0775000000000006  6.2100000000000000 39.8952399999999869   T   T   T
 37.0775000000000006  7.7625000000000002 35.6527399999999943   T   T   T
 35.5250000000000057  6.2100000000000000 39.1146199999999880   T   T   T
 37.0775000000000006  6.2100000000000000 34.8721199999999953   T   T   T
 35.5250000000000057  7.7625000000000002 48.3802399999999864   T   T   T
 35.5250000000000057  7.7625000000000002 43.3571199999999948   T   T   T
 37.0775000000000006  7.7625000000000002 47.5996199999999874   T   T   T
 35.5250000000000057  6.2100000000000000 44.1377399999999938   T   T   T
 40.1824999999999974  0.0000000000000000 25.5555899999999951   F   F   F
 40.1824999999999974  1.5525000000000000 21.3130899999999954   F   F   F
 38.6299999999999955  0.0000000000000000 19.5142699999999962   F   F   F
 40.1824999999999974  0.0000000000000000 32.2417699999999883   F   F   F
 38.6299999999999955  1.5525000000000000 17.0705899999999957   F   F   F
 38.6299999999999955  1.5525000000000000 23.7567699999999924   F   F   F
 40.1824999999999974  1.5525000000000000 27.9992699999999921   F   F   F
 38.6299999999999955  0.0000000000000000 29.7980899999999913   F   F   F
 40.1824999999999974  0.0000000000000000 22.9252399999999952   F   F   F
 40.1824999999999974  1.5525000000000000 18.6827399999999955   F   F   F
 38.6299999999999955  0.0000000000000000 22.1446199999999926   F   F   F
 40.1824999999999974  0.0000000000000000 17.9021199999999965   F   F   F
 38.6299999999999955  1.5525000000000000 31.4102399999999911   F   F   F
 38.6299999999999955  1.5525000000000000 26.3871199999999959   F   F   F
 40.1824999999999974  1.5525000000000000 30.6296199999999921   F   F   F
 38.6299999999999955  0.0000000000000000 27.1677399999999949   F   F   F
 40.1824999999999974  0.0000000000000000 42.5255899999999940   T   T   T
 40.1824999999999974  1.5525000000000000 38.2830899999999872   T   T   T
 38.6299999999999955  0.0000000000000000 36.4842699999999951   T   T   T
 40.1824999999999974  0.0000000000000000 49.2117699999999871   T   T   T
 38.6299999999999955  1.5525000000000000 34.0405899999999946   T   T   T
 38.6299999999999955  1.5525000000000000 40.7267699999999877   T   T   T
 40.1824999999999974  1.5525000000000000 44.9692699999999803   T   T   T
 38.6299999999999955  0.0000000000000000 46.7680899999999866   T   T   T
 40.1824999999999974  0.0000000000000000 39.8952399999999869   T   T   T
 40.1824999999999974  1.5525000000000000 35.6527399999999943   T   T   T
 38.6299999999999955  0.0000000000000000 39.1146199999999880   T   T   T
 40.1824999999999974  0.0000000000000000 34.8721199999999953   T   T   T
 38.6299999999999955  1.5525000000000000 48.3802399999999864   T   T   T
 38.6299999999999955  1.5525000000000000 43.3571199999999948   T   T   T
 40.1824999999999974  1.5525000000000000 47.5996199999999874   T   T   T
 38.6299999999999955  0.0000000000000000 44.1377399999999938   T   T   T
 40.1824999999999974  3.1050000000000000 25.5555899999999951   F   F   F
 40.1824999999999974  4.6574999999999998 21.3130899999999954   F   F   F
 38.6299999999999955  3.1050000000000000 19.5142699999999962   F   F   F
 40.1824999999999974  3.1050000000000000 32.2417699999999883   F   F   F
 38.6299999999999955  4.6574999999999998 17.0705899999999957   F   F   F
 38.6299999999999955  4.6574999999999998 23.7567699999999924   F   F   F
 40.1824999999999974  4.6574999999999998 27.9992699999999921   F   F   F
 38.6299999999999955  3.1050000000000000 29.7980899999999913   F   F   F
 40.1824999999999974  3.1050000000000000 22.9252399999999952   F   F   F
 40.1824999999999974  4.6574999999999998 18.6827399999999955   F   F   F
 38.6299999999999955  3.1050000000000000 22.1446199999999926   F   F   F
 40.1824999999999974  3.1050000000000000 17.9021199999999965   F   F   F
 38.6299999999999955  4.6574999999999998 31.4102399999999911   F   F   F
 38.6299999999999955  4.6574999999999998 26.3871199999999959   F   F   F
 40.1824999999999974  4.6574999999999998 30.6296199999999921   F   F   F
 38.6299999999999955  3.1050000000000000 27.1677399999999949   F   F   F
 40.1824999999999974  3.1050000000000000 42.5255899999999940   T   T   T
 40.1824999999999974  4.6574999999999998 38.2830899999999872   T   T   T
 38.6299999999999955  3.1050000000000000 36.4842699999999951   T   T   T
 40.1824999999999974  3.1050000000000000 49.2117699999999871   T   T   T
 38.6299999999999955  4.6574999999999998 34.0405899999999946   T   T   T
 38.6299999999999955  4.6574999999999998 40.7267699999999877   T   T   T
 40.1824999999999974  4.6574999999999998 44.9692699999999803   T   T   T
 38.6299999999999955  3.1050000000000000 46.7680899999999866   T   T   T
 40.1824999999999974  3.1050000000000000 39.8952399999999869   T   T   T
 40.1824999999999974  4.6574999999999998 35.6527399999999943   T   T   T
 38.6299999999999955  3.1050000000000000 39.1146199999999880   T   T   T
 40.1824999999999974  3.1050000000000000 34.8721199999999953   T   T   T
 38.6299999999999955  4.6574999999999998 48.3802399999999864   T   T   T
 38.6299999999999955  4.6574999999999998 43.3571199999999948   T   T   T
 40.1824999999999974  4.6574999999999998 47.5996199999999874   T   T   T
 38.6299999999999955  3.1050000000000000 44.1377399999999938   T   T   T
 40.1824999999999974  6.2100000000000000 25.5555899999999951   F   F   F
 40.1824999999999974  7.7625000000000002 21.3130899999999954   F   F   F
 38.6299999999999955  6.2100000000000000 19.5142699999999962   F   F   F
 40.1824999999999974  6.2100000000000000 32.2417699999999883   F   F   F
 38.6299999999999955  7.7625000000000002 17.0705899999999957   F   F   F
 38.6299999999999955  7.7625000000000002 23.7567699999999959   F   F   F
 40.1824999999999974  7.7625000000000002 27.9992699999999921   F   F   F
 38.6299999999999955  6.2100000000000000 29.7980899999999913   F   F   F
 40.1824999999999974  6.2100000000000000 22.9252399999999952   F   F   F
 40.1824999999999974  7.7625000000000002 18.6827399999999955   F   F   F
 38.6299999999999955  6.2100000000000000 22.1446199999999926   F   F   F
 40.1824999999999974  6.2100000000000000 17.9021199999999965   F   F   F
 38.6299999999999955  7.7625000000000002 31.4102399999999911   F   F   F
 38.6299999999999955  7.7625000000000002 26.3871199999999959   F   F   F
 40.1824999999999974  7.7625000000000002 30.6296199999999921   F   F   F
 38.6299999999999955  6.2100000000000000 27.1677399999999949   F   F   F
 40.1824999999999974  6.2100000000000000 42.5255899999999940   T   T   T
 40.1824999999999974  7.7625000000000002 38.2830899999999872   T   T   T
 38.6299999999999955  6.2100000000000000 36.4842699999999951   T   T   T
 40.1824999999999974  6.2100000000000000 49.2117699999999871   T   T   T
 38.6299999999999955  7.7625000000000002 34.0405899999999946   T   T   T
 38.6299999999999955  7.7625000000000002 40.7267699999999877   T   T   T
 40.1824999999999974  7.7625000000000002 44.9692699999999803   T   T   T
 38.6299999999999955  6.2100000000000000 46.7680899999999866   T   T   T
 40.1824999999999974  6.2100000000000000 39.8952399999999869   T   T   T
 40.1824999999999974  7.7625000000000002 35.6527399999999943   T   T   T
 38.6299999999999955  6.2100000000000000 39.1146199999999880   T   T   T
 40.1824999999999974  6.2100000000000000 34.8721199999999953   T   T   T
 38.6299999999999955  7.7625000000000002 48.3802399999999864   T   T   T
 38.6299999999999955  7.7625000000000002 43.3571199999999948   T   T   T
 40.1824999999999974  7.7625000000000002 47.5996199999999874   T   T   T
 38.6299999999999955  6.2100000000000000 44.1377399999999938   T   T   T
 43.2874999999999943  0.0000000000000000 25.5555899999999951   F   F   F
 43.2875000000000014  1.5525000000000000 21.3130899999999954   F   F   F
 41.7349999999999994  0.0000000000000000 19.5142699999999962   F   F   F
 43.2874999999999943  0.0000000000000000 32.2417699999999883   F   F   F
 41.7349999999999994  1.5525000000000000 17.0705899999999957   F   F   F
 41.7349999999999994  1.5525000000000000 23.7567699999999924   F   F   F
 43.2875000000000014  1.5525000000000000 27.9992699999999921   F   F   F
 41.7349999999999994  0.0000000000000000 29.7980899999999913   F   F   F
 43.2874999999999943  0.0000000000000000 22.9252399999999952   F   F   F
 43.2875000000000014  1.5525000000000000 18.6827399999999955   F   F   F
 41.7349999999999994  0.0000000000000000 22.1446199999999926   F   F   F
 43.2874999999999943  0.0000000000000000 17.9021199999999965   F   F   F
 41.7349999999999994  1.5525000000000000 31.4102399999999911   F   F   F
 41.7349999999999994  1.5525000000000000 26.3871199999999959   F   F   F
 43.2875000000000014  1.5525000000000000 30.6296199999999921   F   F   F
 41.7349999999999994  0.0000000000000000 27.1677399999999949   F   F   F
 43.2874999999999943  0.0000000000000000 42.5255899999999940   T   T   T
 43.2875000000000014  1.5525000000000000 38.2830899999999872   T   T   T
 41.7349999999999994  0.0000000000000000 36.4842699999999951   T   T   T
 43.2874999999999943  0.0000000000000000 49.2117699999999871   T   T   T
 41.7349999999999994  1.5525000000000000 34.0405899999999946   T   T   T
 41.7349999999999994  1.5525000000000000 40.7267699999999877   T   T   T
 43.2875000000000014  1.5525000000000000 44.9692699999999803   T   T   T
 41.7349999999999994  0.0000000000000000 46.7680899999999866   T   T   T
 43.2874999999999943  0.0000000000000000 39.8952399999999869   T   T   T
 43.2875000000000014  1.5525000000000000 35.6527399999999943   T   T   T
 41.7349999999999994  0.0000000000000000 39.1146199999999880   T   T   T
 43.2874999999999943  0.0000000000000000 34.8721199999999953   T   T   T
 41.7349999999999994  1.5525000000000000 48.3802399999999864   T   T   T
 41.7349999999999994  1.5525000000000000 43.3571199999999948   T   T   T
 43.2875000000000014  1.5525000000000000 47.5996199999999874   T   T   T
 41.7349999999999994  0.0000000000000000 44.1377399999999938   T   T   T
 43.2874999999999943  3.1050000000000000 25.5555899999999951   F   F   F
 43.2875000000000014  4.6574999999999998 21.3130899999999954   F   F   F
 41.7349999999999994  3.1050000000000000 19.5142699999999962   F   F   F
 43.2874999999999943  3.1050000000000000 32.2417699999999883   F   F   F
 41.7349999999999994  4.6574999999999998 17.0705899999999957   F   F   F
 41.7349999999999994  4.6574999999999998 23.7567699999999959   F   F   F
 43.2875000000000014  4.6574999999999998 27.9992699999999921   F   F   F
 41.7349999999999994  3.1050000000000000 29.7980899999999913   F   F   F
 43.2874999999999943  3.1050000000000000 22.9252399999999952   F   F   F
 43.2875000000000014  4.6574999999999998 18.6827399999999955   F   F   F
 41.7349999999999994  3.1050000000000000 22.1446199999999926   F   F   F
 43.2874999999999943  3.1050000000000000 17.9021199999999965   F   F   F
 41.7349999999999994  4.6574999999999998 31.4102399999999911   F   F   F
 41.7349999999999994  4.6574999999999998 26.3871199999999959   F   F   F
 43.2875000000000014  4.6574999999999998 30.6296199999999921   F   F   F
 41.7349999999999994  3.1050000000000000 27.1677399999999949   F   F   F
 43.2874999999999943  3.1050000000000000 42.5255899999999940   T   T   T
 43.2875000000000014  4.6574999999999998 38.2830899999999872   T   T   T
 41.7349999999999994  3.1050000000000000 36.4842699999999951   T   T   T
 43.2874999999999943  3.1050000000000000 49.2117699999999871   T   T   T
 41.7349999999999994  4.6574999999999998 34.0405899999999946   T   T   T
 41.7349999999999994  4.6574999999999998 40.7267699999999877   T   T   T
 43.2875000000000014  4.6574999999999998 44.9692699999999803   T   T   T
 41.7349999999999994  3.1050000000000000 46.7680899999999866   T   T   T
 43.2874999999999943  3.1050000000000000 39.8952399999999869   T   T   T
 43.2875000000000014  4.6574999999999998 35.6527399999999943   T   T   T
 41.7349999999999994  3.1050000000000000 39.1146199999999880   T   T   T
 43.2874999999999943  3.1050000000000000 34.8721199999999953   T   T   T
 41.7349999999999994  4.6574999999999998 48.3802399999999864   T   T   T
 41.7349999999999994  4.6574999999999998 43.3571199999999948   T   T   T
 43.2875000000000014  4.6574999999999998 47.5996199999999874   T   T   T
 41.7349999999999994  3.1050000000000000 44.1377399999999938   T   T   T
 43.2874999999999943  6.2100000000000000 25.5555899999999951   F   F   F
 43.2875000000000014  7.7625000000000002 21.3130899999999954   F   F   F
 41.7349999999999994  6.2100000000000000 19.5142699999999962   F   F   F
 43.2874999999999943  6.2100000000000000 32.2417699999999883   F   F   F
 41.7349999999999994  7.7625000000000002 17.0705899999999957   F   F   F
 41.7349999999999994  7.7625000000000002 23.7567699999999959   F   F   F
 43.2875000000000014  7.7625000000000002 27.9992699999999921   F   F   F
 41.7349999999999994  6.2100000000000000 29.7980899999999913   F   F   F
 43.2874999999999943  6.2100000000000000 22.9252399999999952   F   F   F
 43.2875000000000014  7.7625000000000002 18.6827399999999955   F   F   F
 41.7349999999999994  6.2100000000000000 22.1446199999999926   F   F   F
 43.2874999999999943  6.2100000000000000 17.9021199999999965   F   F   F
 41.7349999999999994  7.7625000000000002 31.4102399999999911   F   F   F
 41.7349999999999994  7.7625000000000002 26.3871199999999959   F   F   F
 43.2875000000000014  7.7625000000000002 30.6296199999999921   F   F   F
 41.7349999999999994  6.2100000000000000 27.1677399999999949   F   F   F
 43.2874999999999943  6.2100000000000000 42.5255899999999940   T   T   T
 43.2875000000000014  7.7625000000000002 38.2830899999999872   T   T   T
 41.7349999999999994  6.2100000000000000 36.4842699999999951   T   T   T
 43.2874999999999943  6.2100000000000000 49.2117699999999871   T   T   T
 41.7349999999999994  7.7625000000000002 34.0405899999999946   T   T   T
 41.7349999999999994  7.7625000000000002 40.7267699999999877   T   T   T
 43.2875000000000014  7.7625000000000002 44.9692699999999803   T   T   T
 41.7349999999999994  6.2100000000000000 46.7680899999999866   T   T   T
 43.2874999999999943  6.2100000000000000 39.8952399999999869   T   T   T
 43.2875000000000014  7.7625000000000002 35.6527399999999943   T   T   T
 41.7349999999999994  6.2100000000000000 39.1146199999999880   T   T   T
 43.2874999999999943  6.2100000000000000 34.8721199999999953   T   T   T
 41.7349999999999994  7.7625000000000002 48.3802399999999864   T   T   T
 41.7349999999999994  7.7625000000000002 43.3571199999999948   T   T   T
 43.2875000000000014  7.7625000000000002 47.5996199999999874   T   T   T
 41.7349999999999994  6.2100000000000000 44.1377399999999938   T   T   T
 46.3924999999999983  0.0000000000000000 25.5555899999999951   F   F   F
 46.3924999999999983  1.5525000000000000 21.3130899999999954   F   F   F
 44.8400000000000034  0.0000000000000000 19.5142699999999962   F   F   F
 46.3924999999999983  0.0000000000000000 32.2417699999999883   F   F   F
 44.8400000000000034  1.5525000000000000 17.0705899999999957   F   F   F
 44.8400000000000034  1.5525000000000000 23.7567699999999959   F   F   F
 46.3924999999999983  1.5525000000000000 27.9992699999999921   F   F   F
 44.8400000000000034  0.0000000000000000 29.7980899999999913   F   F   F
 46.3924999999999983  0.0000000000000000 22.9252399999999952   F   F   F
 46.3924999999999983  1.5525000000000000 18.6827399999999955   F   F   F
 44.8400000000000034  0.0000000000000000 22.1446199999999926   F   F   F
 46.3924999999999983  0.0000000000000000 17.9021199999999965   F   F   F
 44.8400000000000034  1.5525000000000000 31.4102399999999911   F   F   F
 44.8400000000000034  1.5525000000000000 26.3871199999999959   F   F   F
 46.3924999999999983  1.5525000000000000 30.6296199999999921   F   F   F
 44.8400000000000034  0.0000000000000000 27.1677399999999949   F   F   F
 46.3924999999999983  0.0000000000000000 42.5255899999999940   T   T   T
 46.3924999999999983  1.5525000000000000 38.2830899999999872   T   T   T
 44.8400000000000034  0.0000000000000000 36.4842699999999951   T   T   T
 46.3924999999999983  0.0000000000000000 49.2117699999999871   T   T   T
 44.8400000000000034  1.5525000000000000 34.0405899999999946   T   T   T
 44.8400000000000034  1.5525000000000000 40.7267699999999877   T   T   T
 46.3924999999999983  1.5525000000000000 44.9692699999999803   T   T   T
 44.8400000000000034  0.0000000000000000 46.7680899999999866   T   T   T
 46.3924999999999983  0.0000000000000000 39.8952399999999869   T   T   T
 46.3924999999999983  1.5525000000000000 35.6527399999999943   T   T   T
 44.8400000000000034  0.0000000000000000 39.1146199999999880   T   T   T
 46.3924999999999983  0.0000000000000000 34.8721199999999953   T   T   T
 44.8400000000000034  1.5525000000000000 48.3802399999999864   T   T   T
 44.8400000000000034  1.5525000000000000 43.3571199999999948   T   T   T
 46.3924999999999983  1.5525000000000000 47.5996199999999874   T   T   T
 44.8400000000000034  0.0000000000000000 44.1377399999999938   T   T   T
 46.3924999999999983  3.1050000000000000 25.5555899999999951   F   F   F
 46.3924999999999983  4.6574999999999998 21.3130899999999954   F   F   F
 44.8400000000000034  3.1050000000000000 19.5142699999999962   F   F   F
 46.3924999999999983  3.1050000000000000 32.2417699999999883   F   F   F
 44.8400000000000034  4.6574999999999998 17.0705899999999957   F   F   F
 44.8400000000000034  4.6574999999999998 23.7567699999999959   F   F   F
 46.3924999999999983  4.6574999999999998 27.9992699999999921   F   F   F
 44.8400000000000034  3.1050000000000000 29.7980899999999913   F   F   F
 46.3924999999999983  3.1050000000000000 22.9252399999999952   F   F   F
 46.3924999999999983  4.6574999999999998 18.6827399999999955   F   F   F
 44.8400000000000034  3.1050000000000000 22.1446199999999926   F   F   F
 46.3924999999999983  3.1050000000000000 17.9021199999999965   F   F   F
 44.8400000000000034  4.6574999999999998 31.4102399999999911   F   F   F
 44.8400000000000034  4.6574999999999998 26.3871199999999959   F   F   F
 46.3924999999999983  4.6574999999999998 30.6296199999999921   F   F   F
 44.8400000000000034  3.1050000000000000 27.1677399999999949   F   F   F
 46.3924999999999983  3.1050000000000000 42.5255899999999940   T   T   T
 46.3924999999999983  4.6574999999999998 38.2830899999999872   T   T   T
 44.8400000000000034  3.1050000000000000 36.4842699999999951   T   T   T
 46.3924999999999983  3.1050000000000000 49.2117699999999871   T   T   T
 44.8400000000000034  4.6574999999999998 34.0405899999999946   T   T   T
 44.8400000000000034  4.6574999999999998 40.7267699999999877   T   T   T
 46.3924999999999983  4.6574999999999998 44.9692699999999803   T   T   T
 44.8400000000000034  3.1050000000000000 46.7680899999999866   T   T   T
 46.3924999999999983  3.1050000000000000 39.8952399999999869   T   T   T
 46.3924999999999983  4.6574999999999998 35.6527399999999943   T   T   T
 44.8400000000000034  3.1050000000000000 39.1146199999999880   T   T   T
 46.3924999999999983  3.1050000000000000 34.8721199999999953   T   T   T
 44.8400000000000034  4.6574999999999998 48.3802399999999864   T   T   T
 44.8400000000000034  4.6574999999999998 43.3571199999999948   T   T   T
 46.3924999999999983  4.6574999999999998 47.5996199999999874   T   T   T
 44.8400000000000034  3.1050000000000000 44.1377399999999938   T   T   T
 46.3924999999999983  6.2100000000000000 25.5555899999999951   F   F   F
 46.3924999999999983  7.7625000000000002 21.3130899999999954   F   F   F
 44.8400000000000034  6.2100000000000000 19.5142699999999962   F   F   F
 46.3924999999999983  6.2100000000000000 32.2417699999999883   F   F   F
 44.8400000000000034  7.7625000000000002 17.0705899999999957   F   F   F
 44.8400000000000034  7.7625000000000002 23.7567699999999959   F   F   F
 46.3924999999999983  7.7625000000000002 27.9992699999999921   F   F   F
 44.8400000000000034  6.2100000000000000 29.7980899999999913   F   F   F
 46.3924999999999983  6.2100000000000000 22.9252399999999952   F   F   F
 46.3924999999999983  7.7625000000000002 18.6827399999999955   F   F   F
 44.8400000000000034  6.2100000000000000 22.1446199999999926   F   F   F
 46.3924999999999983  6.2100000000000000 17.9021199999999965   F   F   F
 44.8400000000000034  7.7625000000000002 31.4102399999999911   F   F   F
 44.8400000000000034  7.7625000000000002 26.3871199999999959   F   F   F
 46.3924999999999983  7.7625000000000002 30.6296199999999921   F   F   F
 44.8400000000000034  6.2100000000000000 27.1677399999999949   F   F   F
 46.3924999999999983  6.2100000000000000 42.5255899999999940   T   T   T
 46.3924999999999983  7.7625000000000002 38.2830899999999872   T   T   T
 44.8400000000000034  6.2100000000000000 36.4842699999999951   T   T   T
 46.3924999999999983  6.2100000000000000 49.2117699999999871   T   T   T
 44.8400000000000034  7.7625000000000002 34.0405899999999946   T   T   T
 44.8400000000000034  7.7625000000000002 40.7267699999999877   T   T   T
 46.3924999999999983  7.7625000000000002 44.9692699999999945   T   T   T
 44.8400000000000034  6.2100000000000000 46.7680899999999866   T   T   T
 46.3924999999999983  6.2100000000000000 39.8952399999999869   T   T   T
 46.3924999999999983  7.7625000000000002 35.6527399999999943   T   T   T
 44.8400000000000034  6.2100000000000000 39.1146199999999880   T   T   T
 46.3924999999999983  6.2100000000000000 34.8721199999999953   T   T   T
 44.8400000000000034  7.7625000000000002 48.3802399999999864   T   T   T
 44.8400000000000034  7.7625000000000002 43.3571199999999948   T   T   T
 46.3924999999999983  7.7625000000000002 47.5996199999999874   T   T   T
 44.8400000000000034  6.2100000000000000 44.1377399999999938   T   T   T
 49.4975000000000023  0.0000000000000000 22.9252399999999952   F   F   F
 49.4975000000000023  1.5525000000000000 18.6827399999999955   F   F   F
 47.9450000000000003  0.0000000000000000 22.1446199999999926   F   F   F
 49.4975000000000023  0.0000000000000000 17.9021199999999965   F   F   F
 47.9450000000000003  1.5525000000000000 31.4102399999999911   F   F   F
 47.9450000000000003  1.5525000000000000 26.3871199999999959   F   F   F
 49.4975000000000023  1.5525000000000000 30.6296199999999921   F   F   F
 47.9450000000000003  0.0000000000000000 27.1677399999999949   F   F   F
 49.4975000000000023  0.0000000000000000 39.8952399999999869   T   T   T
 49.4975000000000023  1.5525000000000000 35.6527399999999943   T   T   T
 47.9450000000000003  0.0000000000000000 39.1146199999999880   T   T   T
 49.4975000000000023  0.0000000000000000 34.8721199999999953   T   T   T
 47.9450000000000003  1.5525000000000000 48.3802399999999864   T   T   T
 47.9450000000000003  1.5525000000000000 43.3571199999999948   T   T   T
 49.4975000000000023  1.5525000000000000 47.5996199999999874   T   T   T
 47.9450000000000003  0.0000000000000000 44.1377399999999938   T   T   T
 49.4975000000000023  3.1050000000000000 22.9252399999999952   F   F   F
 49.4975000000000023  4.6574999999999998 18.6827399999999955   F   F   F
 47.9450000000000003  3.1050000000000000 22.1446199999999926   F   F   F
 49.4975000000000023  3.1050000000000000 17.9021199999999965   F   F   F
 47.9450000000000003  4.6574999999999998 31.4102399999999911   F   F   F
 47.9450000000000003  4.6574999999999998 26.3871199999999959   F   F   F
 49.4975000000000023  4.6574999999999998 30.6296199999999921   F   F   F
 47.9450000000000003  3.1050000000000000 27.1677399999999949   F   F   F
 49.4975000000000023  3.1050000000000000 39.8952399999999869   T   T   T
 49.4975000000000023  4.6574999999999998 35.6527399999999943   T   T   T
 47.9450000000000003  3.1050000000000000 39.1146199999999880   T   T   T
 49.4975000000000023  3.1050000000000000 34.8721199999999953   T   T   T
 47.9450000000000003  4.6574999999999998 48.3802399999999864   T   T   T
 47.9450000000000003  4.6574999999999998 43.3571199999999948   T   T   T
 49.4975000000000023  4.6574999999999998 47.5996199999999874   T   T   T
 47.9450000000000003  3.1050000000000000 44.1377399999999938   T   T   T
 49.4975000000000023  6.2100000000000000 22.9252399999999952   F   F   F
 49.4975000000000023  7.7625000000000002 18.6827399999999955   F   F   F
 47.9450000000000003  6.2100000000000000 22.1446199999999926   F   F   F
 49.4975000000000023  6.2100000000000000 17.9021199999999965   F   F   F
 47.9450000000000003  7.7625000000000002 31.4102399999999911   F   F   F
 47.9450000000000003  7.7625000000000002 26.3871199999999959   F   F   F
 49.4975000000000023  7.7625000000000002 30.6296199999999921   F   F   F
 47.9450000000000003  6.2100000000000000 27.1677399999999949   F   F   F
 49.4975000000000023  6.2100000000000000 39.8952399999999869   T   T   T
 49.4975000000000023  7.7625000000000002 35.6527399999999943   T   T   T
 47.9450000000000003  6.2100000000000000 39.1146199999999880   T   T   T
 49.4975000000000023  6.2100000000000000 34.8721199999999953   T   T   T
 47.9450000000000003  7.7625000000000002 48.3802399999999864   T   T   T
 47.9450000000000003  7.7625000000000002 43.3571199999999948   T   T   T
 49.4975000000000023  7.7625000000000002 47.5996199999999874   T   T   T
 47.9450000000000003  6.2100000000000000 44.1377399999999938   T   T   T
