Mo C  Mo C  Mo C  Mo C  Mo C  Mo C  Mo C  Mo C  Mo C  Mo C  Mo C  Mo C  Mo C  Mo C  Mo C  Mo C  Mo C  Mo C  Mo C  Mo Ag Mo C  Mo C  Mo C  Mo C  Mo C  Mo C  Mo C  Mo C  Mo C  Mo C  Mo C  Mo C  Mo C  Mo C  Mo C  Mo C  Mo C 
 1.0000000000000000
    18.0660000000000025    0.0000000000000000    0.0000000000000000
     0.0000000000000010   15.5850000000000009    0.0000000000000000
     0.0000000000000000    0.0000000000000000   33.7187500000000000
 Mo  C   Mo  C   Mo  C   Mo  C   Mo  C   Mo  C   Mo  C   Mo  C   Mo  C   Mo  C   Mo  C   Mo  C   Mo  C   Mo  C   Mo  C   Mo  C   Mo  C   Mo  C   Mo  C   Mo  Ag  Mo  C   Mo  C   Mo  C   Mo  C   Mo  C   Mo  C   Mo  C   Mo  C   Mo  C   Mo  C   Mo  C   Mo  C   Mo  C   Mo  C   Mo  C   Mo  C   Mo  C  
   8   4   8   4   8   4   8   4   8   4   8   4   8   4   8   4   8   4   8   4   8   4   8   4   8   4   8   4   8   4   8   4   8   4   8   4   8   4   5   1   2   4   8   4   8   4   8   4   8   4   8   4   8   4   8   4   8   4   8   4   8   4   8   4   8   4   8   4   8   4   8   4   8   4
Selective dynamics
Cartesian
  0.7527500000000007  2.1663150000000000 11.5437499999999993   F   F   F
  5.2692500000000004  4.7638150000000001 11.5437499999999993   F   F   F
  2.2582500000000003  3.0286849999999998  9.1812500000000004   F   F   F
  2.2582500000000008  4.7638150000000001 11.5437499999999993   F   F   F
  0.7527500000000003  0.4311850000000001  9.1812500000000004   F   F   F
  3.7637500000000008  2.1663150000000000 11.5437499999999993   F   F   F
  3.7637499999999999  0.4311850000000001  9.1812500000000004   F   F   F
  5.2692499999999995  3.0286849999999998  9.1812500000000004   F   F   F
  2.2582500000000003  1.2987500000000001 10.3624999999999989   F   F   F
  3.7637500000000013  3.8962500000000002 10.3625000000000007   F   F   F
  0.7527500000000005  3.8962500000000007  8.0000000000000000   F   F   F
  5.2692499999999995  1.2987500000000001  8.0000000000000000   F   F   F
  0.7527500000000015  2.1663150000000004 16.2687499999999972   F   F   F
  5.2692500000000004  4.7638150000000001 16.2687500000000007   F   F   F
  2.2582500000000012  3.0286850000000007 13.9062500000000000   F   F   F
  2.2582500000000016  4.7638150000000001 16.2687500000000007   F   F   F
  0.7527500000000010  0.4311850000000004 13.9062500000000000   F   F   F
  3.7637500000000017  2.1663150000000004 16.2687500000000007   F   F   F
  3.7637500000000017  0.4311850000000004 13.9062500000000000   F   F   F
  5.2692500000000004  3.0286850000000007 13.9062500000000000   F   F   F
  2.2582500000000012  1.2987500000000003 15.0874999999999986   F   F   F
  3.7637500000000021  3.8962500000000007 15.0874999999999986   F   F   F
  0.7527500000000011  3.8962500000000015 12.7249999999999996   F   F   F
  5.2692500000000004  1.2987500000000003 12.7249999999999996   F   F   F
  0.7527500000000024  2.1663150000000004 20.9937499999999986   T   T   T
  5.2692500000000013  4.7638150000000010 20.9937499999999986   T   T   T
  2.2582500000000021  3.0286850000000007 18.6312500000000014   T   T   T
  2.2582500000000025  4.7638150000000010 20.9937499999999986   T   T   T
  0.7527500000000017  0.4311850000000006 18.6312500000000014   T   T   T
  3.7637500000000030  2.1663150000000004 20.9937499999999986   T   T   T
  3.7637500000000021  0.4311850000000006 18.6312500000000014   T   T   T
  5.2692500000000013  3.0286850000000007 18.6312500000000014   T   T   T
  2.2582500000000016  1.2987500000000007 19.8125000000000000   T   T   T
  3.7637500000000026  3.8962500000000007 19.8125000000000000   T   T   T
  0.7527500000000019  3.8962500000000015 17.4499999999999993   T   T   T
  5.2692500000000013  1.2987500000000007 17.4499999999999993   T   T   T
  0.7527500000000030  2.1663150000000009 25.7187500000000000   T   T   T
  5.2692500000000022  4.7638150000000010 25.7187500000000000   T   T   T
  2.2582500000000030  3.0286850000000007 23.3562499999999993   T   T   T
  2.2582500000000030  4.7638150000000010 25.7187500000000000   T   T   T
  0.7527500000000026  0.4311850000000010 23.3562499999999993   T   T   T
  3.7637500000000030  2.1663150000000009 25.7187500000000000   T   T   T
  3.7637500000000030  0.4311850000000010 23.3562499999999993   T   T   T
  5.2692500000000022  3.0286850000000007 23.3562499999999993   T   T   T
  2.2582500000000025  1.2987500000000010 24.5374999999999979   T   T   T
  3.7637500000000035  3.8962500000000015 24.5374999999999979   T   T   T
  0.7527500000000028  3.8962500000000015 22.1749999999999972   T   T   T
  5.2692500000000022  1.2987500000000010 22.1749999999999972   T   T   T
  0.7527500000000010  7.3613150000000003 11.5437499999999993   F   F   F
  5.2692500000000004  9.9588150000000013 11.5437499999999993   F   F   F
  2.2582500000000008  8.2236849999999997  9.1812500000000004   F   F   F
  2.2582500000000012  9.9588150000000013 11.5437499999999993   F   F   F
  0.7527500000000006  5.6261850000000004  9.1812500000000004   F   F   F
  3.7637500000000013  7.3613150000000003 11.5437499999999993   F   F   F
  3.7637500000000004  5.6261850000000004  9.1812500000000004   F   F   F
  5.2692499999999995  8.2236849999999997  9.1812500000000004   F   F   F
  2.2582500000000008  6.4937500000000004 10.3624999999999989   F   F   F
  3.7637500000000017  9.0912500000000005 10.3625000000000007   F   F   F
  0.7527500000000008  9.0912500000000005  8.0000000000000000   F   F   F
  5.2692499999999995  6.4937500000000004  8.0000000000000000   F   F   F
  0.7527500000000018  7.3613150000000012 16.2687499999999972   F   F   F
  5.2692500000000004  9.9588150000000013 16.2687500000000007   F   F   F
  2.2582500000000016  8.2236850000000015 13.9062500000000000   F   F   F
  2.2582500000000021  9.9588150000000013 16.2687500000000007   F   F   F
  0.7527500000000014  5.6261850000000004 13.9062500000000000   F   F   F
  3.7637500000000021  7.3613150000000012 16.2687500000000007   F   F   F
  3.7637500000000021  5.6261850000000004 13.9062500000000000   F   F   F
  5.2692500000000004  8.2236850000000015 13.9062500000000000   F   F   F
  2.2582500000000016  6.4937500000000004 15.0874999999999986   F   F   F
  3.7637500000000026  9.0912500000000005 15.0874999999999986   F   F   F
  0.7527500000000015  9.0912500000000023 12.7249999999999996   F   F   F
  5.2692500000000004  6.4937500000000004 12.7249999999999996   F   F   F
  0.7527500000000027  7.3613150000000012 20.9937499999999986   T   T   T
  5.2692500000000013  9.9588150000000013 20.9937499999999986   T   T   T
  2.2582500000000025  8.2236850000000015 18.6312500000000014   T   T   T
  2.2582500000000030  9.9588150000000013 20.9937499999999986   T   T   T
  0.7527500000000020  5.6261850000000013 18.6312500000000014   T   T   T
  3.7637500000000035  7.3613150000000012 20.9937499999999986   T   T   T
  3.7637500000000026  5.6261850000000013 18.6312500000000014   T   T   T
  5.2692500000000013  8.2236850000000015 18.6312500000000014   T   T   T
  2.2582500000000021  6.4937500000000012 19.8125000000000000   T   T   T
  3.7637500000000030  9.0912500000000005 19.8125000000000000   T   T   T
  0.7527500000000023  9.0912500000000023 17.4499999999999993   T   T   T
  5.2692500000000013  6.4937500000000012 17.4499999999999993   T   T   T
  0.7527500000000034  7.3613150000000012 25.7187500000000000   T   T   T
  5.2692500000000022  9.9588150000000013 25.7187500000000000   T   T   T
  2.2582500000000034  8.2236850000000015 23.3562499999999993   T   T   T
  2.2582500000000034  9.9588150000000013 25.7187500000000000   T   T   T
  0.7527500000000029  5.6261850000000013 23.3562499999999993   T   T   T
  3.7637500000000035  7.3613150000000012 25.7187500000000000   T   T   T
  3.7637500000000035  5.6261850000000013 23.3562499999999993   T   T   T
  5.2692500000000022  8.2236850000000015 23.3562499999999993   T   T   T
  2.2582500000000030  6.4937500000000012 24.5374999999999979   T   T   T
  3.7637500000000039  9.0912500000000023 24.5374999999999979   T   T   T
  0.7527500000000031  9.0912500000000023 22.1749999999999972   T   T   T
  5.2692500000000022  6.4937500000000012 22.1749999999999972   T   T   T
  0.7527500000000014 12.5563150000000014 11.5437499999999993   F   F   F
  5.2692500000000013 15.1538150000000016 11.5437499999999993   F   F   F
  2.2582500000000008 13.4186850000000000  9.1812500000000004   F   F   F
  2.2582500000000012 15.1538150000000016 11.5437499999999993   F   F   F
  0.7527500000000009 10.8211849999999998  9.1812500000000004   F   F   F
  3.7637500000000013 12.5563150000000014 11.5437499999999993   F   F   F
  3.7637500000000004 10.8211849999999998  9.1812500000000004   F   F   F
  5.2692500000000004 13.4186850000000000  9.1812500000000004   F   F   F
  2.2582500000000008 11.6887500000000006 10.3624999999999989   F   F   F
  3.7637500000000017 14.2862500000000008 10.3625000000000007   F   F   F
  0.7527500000000011 14.2862500000000008  8.0000000000000000   F   F   F
  5.2692500000000004 11.6887500000000006  8.0000000000000000   F   F   F
  0.7527500000000021 12.5563150000000014 16.2687499999999972   F   F   F
  5.2692500000000013 15.1538150000000016 16.2687500000000007   F   F   F
  2.2582500000000016 13.4186850000000018 13.9062500000000000   F   F   F
  2.2582500000000021 15.1538150000000016 16.2687500000000007   F   F   F
  0.7527500000000017 10.8211850000000016 13.9062500000000000   F   F   F
  3.7637500000000021 12.5563150000000014 16.2687500000000007   F   F   F
  3.7637500000000021 10.8211850000000016 13.9062500000000000   F   F   F
  5.2692500000000013 13.4186850000000018 13.9062500000000000   F   F   F
  2.2582500000000016 11.6887500000000006 15.0874999999999986   F   F   F
  3.7637500000000026 14.2862500000000008 15.0874999999999986   F   F   F
  0.7527500000000018 14.2862500000000026 12.7249999999999996   F   F   F
  5.2692500000000013 11.6887500000000006 12.7249999999999996   F   F   F
  0.7527500000000030 12.5563150000000014 20.9937499999999986   T   T   T
  5.2692500000000022 15.1538150000000016 20.9937499999999986   T   T   T
  2.2582500000000025 13.4186850000000018 18.6312500000000014   T   T   T
  2.2582500000000030 15.1538150000000016 20.9937499999999986   T   T   T
  0.7527500000000024 10.8211850000000016 18.6312500000000014   T   T   T
  3.7637500000000035 12.5563150000000014 20.9937499999999986   T   T   T
  3.7637500000000026 10.8211850000000016 18.6312500000000014   T   T   T
  5.2692500000000022 13.4186850000000018 18.6312500000000014   T   T   T
  2.2582500000000021 11.6887500000000006 19.8125000000000000   T   T   T
  3.7637500000000030 14.2862500000000008 19.8125000000000000   T   T   T
  0.7527500000000026 14.2862500000000026 17.4499999999999993   T   T   T
  5.2692500000000022 11.6887500000000006 17.4499999999999993   T   T   T
  0.7527500000000037 12.5563150000000014 25.7187500000000000   T   T   T
  5.2692500000000031 15.1538150000000016 25.7187500000000000   T   T   T
  2.2582500000000034 13.4186850000000018 23.3562499999999993   T   T   T
  2.2582500000000034 15.1538150000000016 25.7187500000000000   T   T   T
  0.7527500000000032 10.8211850000000016 23.3562499999999993   T   T   T
  3.7637500000000035 12.5563150000000014 25.7187500000000000   T   T   T
  3.7637500000000035 10.8211850000000016 23.3562499999999993   T   T   T
  5.2692500000000031 13.4186850000000018 23.3562499999999993   T   T   T
  2.2582500000000030 11.6887500000000024 24.5374999999999979   T   T   T
  3.7637500000000039 14.2862500000000026 24.5374999999999979   T   T   T
  0.7527500000000035 14.2862500000000026 22.1749999999999972   T   T   T
  5.2692500000000031 11.6887500000000024 22.1749999999999972   T   T   T
  6.7747500000000009  2.1663150000000000 11.5437499999999993   F   F   F
 11.2912500000000016  4.7638150000000001 11.5437499999999993   F   F   F
  8.2802500000000006  3.0286849999999998  9.1812500000000004   F   F   F
  8.2802500000000006  4.7638150000000001 11.5437499999999993   F   F   F
  6.7747500000000009  0.4311850000000001  9.1812500000000004   F   F   F
  9.7857500000000002  2.1663150000000000 11.5437499999999993   F   F   F
  9.7857500000000002  0.4311850000000001  9.1812500000000004   F   F   F
 11.2912499999999998  3.0286849999999998  9.1812500000000004   F   F   F
  8.2802500000000006  1.2987500000000001 10.3624999999999989   F   F   F
  9.7857500000000019  3.8962500000000002 10.3625000000000007   F   F   F
  6.7747500000000009  3.8962500000000007  8.0000000000000000   F   F   F
 11.2912499999999998  1.2987500000000001  8.0000000000000000   F   F   F
  6.7747500000000018  2.1663150000000004 16.2687499999999972   F   F   F
 11.2912500000000016  4.7638150000000001 16.2687500000000007   F   F   F
  8.2802500000000023  3.0286850000000007 13.9062500000000000   F   F   F
  8.2802500000000023  4.7638150000000001 16.2687500000000007   F   F   F
  6.7747500000000009  0.4311850000000004 13.9062500000000000   F   F   F
  9.7857500000000019  2.1663150000000004 16.2687500000000007   F   F   F
  9.7857500000000019  0.4311850000000004 13.9062500000000000   F   F   F
 11.2912500000000016  3.0286850000000007 13.9062500000000000   F   F   F
  8.2802500000000023  1.2987500000000003 15.0874999999999986   F   F   F
  9.7857500000000019  3.8962500000000007 15.0874999999999986   F   F   F
  6.7747500000000009  3.8962500000000015 12.7249999999999996   F   F   F
 11.2912500000000016  1.2987500000000003 12.7249999999999996   F   F   F
  6.7747500000000027  2.1663150000000004 20.9937499999999986   T   T   T
 11.2912500000000016  4.7638150000000010 20.9937499999999986   T   T   T
  8.2802500000000023  3.0286850000000007 18.6312500000000014   T   T   T
  8.2802500000000023  4.7638150000000010 20.9937499999999986   T   T   T
  6.7747500000000018  0.4311850000000006 18.6312500000000014   T   T   T
  9.7857500000000037  2.1663150000000004 20.9937499999999986   T   T   T
  9.7857500000000019  0.4311850000000006 18.6312500000000014   T   T   T
 11.2912500000000016  3.0286850000000007 18.6312500000000014   T   T   T
  8.2802500000000023  1.2987500000000007 19.8125000000000000   T   T   T
  9.7857500000000037  3.8962500000000007 19.8125000000000000   T   T   T
  6.7747500000000018  3.8962500000000015 17.4499999999999993   T   T   T
 11.2912500000000016  1.2987500000000007 17.4499999999999993   T   T   T
  6.7747500000000036  2.1663150000000009 25.7187500000000000   T   T   T
 11.2912500000000016  4.7638150000000010 25.7187500000000000   T   T   T
  8.2802500000000023  3.0286850000000007 23.3562499999999993   T   T   T
  8.2802500000000023  4.7638150000000010 25.7187500000000000   T   T   T
  6.7747500000000027  0.4311850000000010 23.3562499999999993   T   T   T
  9.7857500000000037  2.1663150000000009 25.7187500000000000   T   T   T
  9.7857500000000037  0.4311850000000010 23.3562499999999993   T   T   T
 11.2912500000000016  3.0286850000000007 23.3562499999999993   T   T   T
  8.2802500000000023  1.2987500000000010 24.5374999999999979   T   T   T
  9.7857500000000037  3.8962500000000015 24.5374999999999979   T   T   T
  6.7747500000000027  3.8962500000000015 22.1749999999999972   T   T   T
 11.2912500000000016  1.2987500000000010 22.1749999999999972   T   T   T
  6.7747500000000009  7.3613150000000003 11.5437499999999993   F   F   F
 11.2912500000000016  9.9588150000000013 11.5437499999999993   F   F   F
  8.2802500000000006  8.2236849999999997  9.1812500000000004   F   F   F
  8.2802500000000006  9.9588150000000013 11.5437499999999993   F   F   F
  6.7747500000000009  5.6261850000000004  9.1812500000000004   F   F   F
  9.7857500000000002  7.3613150000000003 11.5437499999999993   F   F   F
  9.7857500000000002  5.6261850000000004  9.1812500000000004   F   F   F
 11.2912499999999998  8.2236849999999997  9.1812500000000004   F   F   F
  8.2802500000000006  6.4937500000000004 10.3624999999999989   F   F   F
  9.7857500000000019  9.0912500000000005 10.3625000000000007   F   F   F
  6.7747500000000009  9.0912500000000005  8.0000000000000000   F   F   F
 11.2912499999999998  6.4937500000000004  8.0000000000000000   F   F   F
  6.7747500000000018  7.3613150000000012 16.2687499999999972   F   F   F
 11.2912500000000016  9.9588150000000013 16.2687500000000007   F   F   F
  8.2802500000000023  8.2236850000000015 13.9062500000000000   F   F   F
  8.2802500000000023  9.9588150000000013 16.2687500000000007   F   F   F
  6.7747500000000009  5.6261850000000004 13.9062500000000000   F   F   F
  9.7857500000000019  7.3613150000000012 16.2687500000000007   F   F   F
  9.7857500000000019  5.6261850000000004 13.9062500000000000   F   F   F
 11.2912500000000016  8.2236850000000015 13.9062500000000000   F   F   F
  8.2802500000000023  6.4937500000000004 15.0874999999999986   F   F   F
  9.7857500000000019  9.0912500000000005 15.0874999999999986   F   F   F
  6.7747500000000009  9.0912500000000023 12.7249999999999996   F   F   F
 11.2912500000000016  6.4937500000000004 12.7249999999999996   F   F   F
  6.7747500000000027  7.3613150000000012 20.9937499999999986   T   T   T
 11.2912500000000016  9.9588150000000013 20.9937499999999986   T   T   T
  8.2802500000000023  8.2236850000000015 18.6312500000000014   T   T   T
  8.2802500000000023  9.9588150000000013 20.9937499999999986   T   T   T
  6.7747500000000018  5.6261850000000013 18.6312500000000014   T   T   T
  9.7857500000000037  7.3613150000000012 20.9937499999999986   T   T   T
  9.7857500000000019  5.6261850000000013 18.6312500000000014   T   T   T
 11.2912500000000016  8.2236850000000015 18.6312500000000014   T   T   T
  8.2802500000000023  6.4937500000000012 19.8125000000000000   T   T   T
  9.7857500000000037  9.0912500000000005 19.8125000000000000   T   T   T
  6.7747500000000018  9.0912500000000023 17.4499999999999993   T   T   T
 11.2912500000000016  6.4937500000000012 17.4499999999999993   T   T   T
  6.7747500000000036  7.3613150000000012 25.7187500000000000   T   T   T
 11.2912500000000016  9.9588150000000013 25.7187500000000000   T   T   T
  8.2802500000000023  8.2236850000000015 23.3562499999999993   T   T   T
  8.2802500000000023  9.9588150000000013 25.7187500000000000   T   T   T
  6.7747500000000027  5.6261850000000013 23.3562499999999993   T   T   T
  9.7857500000000037  7.3613150000000012 25.7187500000000000   T   T   T
  9.7857500000000037  5.6261850000000013 23.3562499999999993   T   T   T
 11.2912500000000016  8.2236850000000015 23.3562499999999993   T   T   T
  8.2802500000000023  6.4937500000000012 24.5374999999999979   T   T   T
  9.7857500000000037  9.0912500000000023 24.5374999999999979   T   T   T
  6.7747500000000027  9.0912500000000023 22.1749999999999972   T   T   T
 11.2912500000000016  6.4937500000000012 22.1749999999999972   T   T   T
  6.7747500000000018 12.5563150000000014 11.5437499999999993   F   F   F
 11.2912500000000016 15.1538150000000016 11.5437499999999993   F   F   F
  8.2802500000000023 13.4186850000000000  9.1812500000000004   F   F   F
  8.2802500000000023 15.1538150000000016 11.5437499999999993   F   F   F
  6.7747500000000009 10.8211849999999998  9.1812500000000004   F   F   F
  9.7857500000000019 12.5563150000000014 11.5437499999999993   F   F   F
  9.7857500000000002 10.8211849999999998  9.1812500000000004   F   F   F
 11.2912500000000016 13.4186850000000000  9.1812500000000004   F   F   F
  8.2802500000000023 11.6887500000000006 10.3624999999999989   F   F   F
  9.7857500000000019 14.2862500000000008 10.3625000000000007   F   F   F
  6.7747500000000018 14.2862500000000008  8.0000000000000000   F   F   F
 11.2912500000000016 11.6887500000000006  8.0000000000000000   F   F   F
  6.7747500000000027 12.5563150000000014 16.2687499999999972   F   F   F
 11.2912500000000016 15.1538150000000016 16.2687500000000007   F   F   F
  8.2802500000000023 13.4186850000000018 13.9062500000000000   F   F   F
  8.2802500000000023 15.1538150000000016 16.2687500000000007   F   F   F
  6.7747500000000018 10.8211850000000016 13.9062500000000000   F   F   F
  9.7857500000000037 12.5563150000000014 16.2687500000000007   F   F   F
  9.7857500000000037 10.8211850000000016 13.9062500000000000   F   F   F
 11.2912500000000016 13.4186850000000018 13.9062500000000000   F   F   F
  8.2802500000000023 11.6887500000000006 15.0874999999999986   F   F   F
  9.7857500000000037 14.2862500000000008 15.0874999999999986   F   F   F
  6.7747500000000027 14.2862500000000026 12.7249999999999996   F   F   F
 11.2912500000000016 11.6887500000000006 12.7249999999999996   F   F   F
  6.7747500000000036 12.5563150000000014 20.9937499999999986   T   T   T
 11.2912500000000016 15.1538150000000016 20.9937499999999986   T   T   T
  8.2802500000000023 13.4186850000000018 18.6312500000000014   T   T   T
  8.2802500000000041 15.1538150000000016 20.9937499999999986   T   T   T
  6.7747500000000027 10.8211850000000016 18.6312500000000014   T   T   T
  9.7857500000000037 12.5563150000000014 20.9937499999999986   T   T   T
  9.7857500000000037 10.8211850000000016 18.6312500000000014   T   T   T
 11.2912500000000016 13.4186850000000018 18.6312500000000014   T   T   T
  8.2802500000000023 11.6887500000000006 19.8125000000000000   T   T   T
  9.7857500000000037 14.2862500000000008 19.8125000000000000   T   T   T
  6.7747500000000027 14.2862500000000026 17.4499999999999993   T   T   T
 11.2912500000000016 11.6887500000000006 17.4499999999999993   T   T   T
  6.7747500000000045 12.5563150000000014 25.7187500000000000   T   T   T
 11.2912500000000033 15.1538150000000016 25.7187500000000000   T   T   T
  8.2802500000000041 13.4186850000000018 23.3562499999999993   T   T   T
  8.2802500000000041 15.1538150000000016 25.7187500000000000   T   T   T
  6.7747500000000036 10.8211850000000016 23.3562499999999993   T   T   T
  9.7857500000000037 12.5563150000000014 25.7187500000000000   T   T   T
  9.7857500000000037 10.8211850000000016 23.3562499999999993   T   T   T
 11.2912500000000033 13.4186850000000018 23.3562499999999993   T   T   T
  8.2802500000000041 11.6887500000000024 24.5374999999999979   T   T   T
  9.7857500000000037 14.2862500000000026 24.5374999999999979   T   T   T
  6.7747500000000036 14.2862500000000026 22.1749999999999972   T   T   T
 11.2912500000000033 11.6887500000000024 22.1749999999999972   T   T   T
 12.7967500000000012  2.1663150000000000 11.5437499999999993   F   F   F
 17.3132500000000000  4.7638150000000001 11.5437499999999993   F   F   F
 14.3022500000000008  3.0286849999999998  9.1812500000000004   F   F   F
 14.3022500000000008  4.7638150000000001 11.5437499999999993   F   F   F
 12.7967500000000012  0.4311850000000001  9.1812500000000004   F   F   F
 15.8077500000000022  2.1663150000000000 11.5437499999999993   F   F   F
 15.8077500000000004  0.4311850000000001  9.1812500000000004   F   F   F
 17.3132500000000000  3.0286849999999998  9.1812500000000004   F   F   F
 14.3022500000000008  1.2987500000000001 10.3624999999999989   F   F   F
 15.8077500000000022  3.8962500000000002 10.3625000000000007   F   F   F
 12.7967500000000012  3.8962500000000007  8.0000000000000000   F   F   F
 17.3132500000000000  1.2987500000000001  8.0000000000000000   F   F   F
 12.7967500000000012  2.1663150000000004 16.2687499999999972   F   F   F
 17.3132500000000000  4.7638150000000001 16.2687500000000007   F   F   F
 14.3022500000000008  3.0286850000000007 13.9062500000000000   F   F   F
 14.3022500000000026  4.7638150000000001 16.2687500000000007   F   F   F
 12.7967500000000012  0.4311850000000004 13.9062500000000000   F   F   F
 15.8077500000000022  2.1663150000000004 16.2687500000000007   F   F   F
 15.8077500000000022  0.4311850000000004 13.9062500000000000   F   F   F
 17.3132500000000000  3.0286850000000007 13.9062500000000000   F   F   F
 14.3022500000000008  1.2987500000000003 15.0874999999999986   F   F   F
 15.8077500000000022  3.8962500000000007 15.0874999999999986   F   F   F
 12.7967500000000012  3.8962500000000015 12.7249999999999996   F   F   F
 17.3132500000000000  1.2987500000000003 12.7249999999999996   F   F   F
 12.7967500000000030  2.1663150000000004 20.9937499999999986   T   T   T
 17.3132500000000036  4.7638150000000010 20.9937499999999986   T   T   T
 14.3022500000000026  3.0286850000000007 18.6312500000000014   T   T   T
 14.3022500000000026  4.7638150000000010 20.9937499999999986   T   T   T
 12.7967500000000030  0.4311850000000006 18.6312500000000014   T   T   T
 15.8077500000000040  2.1663150000000004 20.9937499999999986   T   T   T
 15.8077500000000022  0.4311850000000006 18.6312500000000014   T   T   T
 17.3132500000000036  3.0286850000000007 18.6312500000000014   T   T   T
 14.3022500000000026  1.2987500000000007 19.8125000000000000   T   T   T
 15.8077500000000022  3.8962500000000007 19.8125000000000000   T   T   T
 12.7967500000000030  3.8962500000000015 17.4499999999999993   T   T   T
 17.3132500000000036  1.2987500000000007 17.4499999999999993   T   T   T
 12.7967500000000030  2.1663150000000009 25.7187500000000000   T   T   T
 17.3132500000000036  4.7638150000000010 25.7187500000000000   T   T   T
 14.3022500000000043  3.0286850000000007 23.3562499999999993   T   T   T
 14.3022500000000043  4.7638150000000010 25.7187500000000000   T   T   T
 12.7967500000000030  0.4311850000000010 23.3562499999999993   T   T   T
 15.8077500000000040  2.1663150000000009 25.7187500000000000   T   T   T
 15.8077500000000040  0.4311850000000010 23.3562499999999993   T   T   T
 17.3132500000000036  3.0286850000000007 23.3562499999999993   T   T   T
 14.3022500000000026  1.2987500000000010 24.5374999999999979   T   T   T
 15.8077500000000040  3.8962500000000015 24.5374999999999979   T   T   T
 12.7967500000000030  3.8962500000000015 22.1749999999999972   T   T   T
 17.3132500000000036  1.2987500000000010 22.1749999999999972   T   T   T
 12.7967500000000012  7.3613150000000003 11.5437499999999993   F   F   F
 17.3132500000000000  9.9588150000000013 11.5437499999999993   F   F   F
 14.3022500000000008  8.2236849999999997  9.1812500000000004   F   F   F
 14.3022500000000008  9.9588150000000013 11.5437499999999993   F   F   F
 12.7967500000000012  5.6261850000000004  9.1812500000000004   F   F   F
 15.8077500000000022  7.3613150000000003 11.5437499999999993   F   F   F
 15.8077500000000004  5.6261850000000004  9.1812500000000004   F   F   F
 17.3132500000000000  8.2236849999999997  9.1812500000000004   F   F   F
 14.3022500000000008  6.4937500000000004 10.3624999999999989   F   F   F
 15.8077500000000022  9.0912500000000005 10.3625000000000007   F   F   F
 12.7967500000000012  9.0912500000000005  8.0000000000000000   F   F   F
 17.3132500000000000  6.4937500000000004  8.0000000000000000   F   F   F
 12.7967500000000012  7.3613150000000012 16.2687499999999972   F   F   F
 17.3132500000000000  9.9588150000000013 16.2687500000000007   F   F   F
 14.3022500000000008  8.2236850000000015 13.9062500000000000   F   F   F
 14.3022500000000026  9.9588150000000013 16.2687500000000007   F   F   F
 12.7967500000000012  5.6261850000000004 13.9062500000000000   F   F   F
 15.8077500000000022  7.3613150000000012 16.2687500000000007   F   F   F
 15.8077500000000022  5.6261850000000004 13.9062500000000000   F   F   F
 17.3132500000000000  8.2236850000000015 13.9062500000000000   F   F   F
 14.3022500000000008  6.4937500000000004 15.0874999999999986   F   F   F
 15.8077500000000022  9.0912500000000005 15.0874999999999986   F   F   F
 12.7967500000000012  9.0912500000000023 12.7249999999999996   F   F   F
 17.3132500000000000  6.4937500000000004 12.7249999999999996   F   F   F
 12.7967500000000030  7.3613150000000012 20.9937499999999986   T   T   T
 17.3132500000000036  9.9588150000000013 20.9937499999999986   T   T   T
 14.3022500000000026  8.2236850000000015 18.6312500000000014   T   T   T
 14.3022500000000026  9.9588150000000013 20.9937499999999986   T   T   T
 12.7967500000000030  5.6261850000000013 18.6312500000000014   T   T   T
 15.8077500000000040  7.3613150000000012 20.9937499999999986   T   T   T
 15.8077500000000022  5.6261850000000013 18.6312500000000014   T   T   T
 17.3132500000000036  8.2236850000000015 18.6312500000000014   T   T   T
 14.3022500000000026  6.4937500000000012 19.8125000000000000   T   T   T
 15.8077500000000022  9.0912500000000005 19.8125000000000000   T   T   T
 12.7967500000000030  9.0912500000000023 17.4499999999999993   T   T   T
 17.3132500000000036  6.4937500000000012 17.4499999999999993   T   T   T
 12.7967500000000030  7.3613150000000012 25.7187500000000000   T   T   T
 17.3132500000000036  9.9588150000000013 25.7187500000000000   T   T   T
 14.3022500000000043  8.2236850000000015 23.3562499999999993   T   T   T
 14.3022500000000043  9.9588150000000013 25.7187500000000000   T   T   T
 12.7967500000000030  5.6261850000000013 23.3562499999999993   T   T   T
 15.8077500000000040  7.3613150000000012 25.7187500000000000   T   T   T
 15.8077500000000040  5.6261850000000013 23.3562499999999993   T   T   T
 17.3132500000000036  8.2236850000000015 23.3562499999999993   T   T   T
 14.3022500000000026  6.4937500000000012 24.5374999999999979   T   T   T
 15.8077500000000040  9.0912500000000023 24.5374999999999979   T   T   T
 12.7967500000000030  9.0912500000000023 22.1749999999999972   T   T   T
 17.3132500000000036  6.4937500000000012 22.1749999999999972   T   T   T
 12.7967500000000012 12.5563150000000014 11.5437499999999993   F   F   F
 17.3132500000000000 15.1538150000000016 11.5437499999999993   F   F   F
 14.3022500000000008 13.4186850000000000  9.1812500000000004   F   F   F
 14.3022500000000008 15.1538150000000016 11.5437499999999993   F   F   F
 12.7967500000000012 10.8211849999999998  9.1812500000000004   F   F   F
 15.8077500000000022 12.5563150000000014 11.5437499999999993   F   F   F
 15.8077500000000004 10.8211849999999998  9.1812500000000004   F   F   F
 17.3132500000000000 13.4186850000000000  9.1812500000000004   F   F   F
 14.3022500000000008 11.6887500000000006 10.3624999999999989   F   F   F
 15.8077500000000022 14.2862500000000008 10.3625000000000007   F   F   F
 12.7967500000000012 14.2862500000000008  8.0000000000000000   F   F   F
 17.3132500000000000 11.6887500000000006  8.0000000000000000   F   F   F
 12.7967500000000012 12.5563150000000014 16.2687499999999972   F   F   F
 17.3132500000000000 15.1538150000000016 16.2687500000000007   F   F   F
 14.3022500000000008 13.4186850000000018 13.9062500000000000   F   F   F
 14.3022500000000026 15.1538150000000016 16.2687500000000007   F   F   F
 12.7967500000000012 10.8211850000000016 13.9062500000000000   F   F   F
 15.8077500000000022 12.5563150000000014 16.2687500000000007   F   F   F
 15.8077500000000022 10.8211850000000016 13.9062500000000000   F   F   F
 17.3132500000000000 13.4186850000000018 13.9062500000000000   F   F   F
 14.3022500000000008 11.6887500000000006 15.0874999999999986   F   F   F
 15.8077500000000022 14.2862500000000008 15.0874999999999986   F   F   F
 12.7967500000000012 14.2862500000000026 12.7249999999999996   F   F   F
 17.3132500000000000 11.6887500000000006 12.7249999999999996   F   F   F
 12.7967500000000030 12.5563150000000014 20.9937499999999986   T   T   T
 17.3132500000000036 15.1538150000000016 20.9937499999999986   T   T   T
 14.3022500000000026 13.4186850000000018 18.6312500000000014   T   T   T
 14.3022500000000026 15.1538150000000016 20.9937499999999986   T   T   T
 12.7967500000000030 10.8211850000000016 18.6312500000000014   T   T   T
 15.8077500000000040 12.5563150000000014 20.9937499999999986   T   T   T
 15.8077500000000022 10.8211850000000016 18.6312500000000014   T   T   T
 17.3132500000000036 13.4186850000000018 18.6312500000000014   T   T   T
 14.3022500000000026 11.6887500000000006 19.8125000000000000   T   T   T
 15.8077500000000022 14.2862500000000008 19.8125000000000000   T   T   T
 12.7967500000000030 14.2862500000000026 17.4499999999999993   T   T   T
 17.3132500000000036 11.6887500000000006 17.4499999999999993   T   T   T
 12.7967500000000030 12.5563150000000014 25.7187500000000000   T   T   T
 17.3132500000000036 15.1538150000000016 25.7187500000000000   T   T   T
 14.3022500000000043 13.4186850000000018 23.3562499999999993   T   T   T
 14.3022500000000043 15.1538150000000016 25.7187500000000000   T   T   T
 12.7967500000000030 10.8211850000000016 23.3562499999999993   T   T   T
 15.8077500000000040 12.5563150000000014 25.7187500000000000   T   T   T
 15.8077500000000040 10.8211850000000016 23.3562499999999993   T   T   T
 17.3132500000000036 13.4186850000000018 23.3562499999999993   T   T   T
 14.3022500000000026 11.6887500000000024 24.5374999999999979   T   T   T
 15.8077500000000040 14.2862500000000026 24.5374999999999979   T   T   T
 12.7967500000000030 14.2862500000000026 22.1749999999999972   T   T   T
 17.3132500000000036 11.6887500000000024 22.1749999999999972   T   T   T
