Ni Mo Ru Mo S 
 1.0000000000000000
    13.8582538582607881    0.0000000000000000    0.0000000000000008
     0.6705606705610077   28.2618320069152063    0.0000000000000017
     0.0000000000000000    0.0000000000000000   20.8578859690580636
 Ni  Mo  Ru  Mo  S  
 292  18   1  21  80
Selective dynamics
Cartesian
  4.2468842468863715 26.9713373947272927  5.1876375482964407   F   F   F
  5.8115258115287194 28.9070793130091594  5.1876375482964381   F   F   F
  3.5763235763253656 22.7127051745071924  5.1876375482964372   F   F   F
  5.1409651409677126 24.6484470927890591  5.1876375482964363   F   F   F
  6.7056067056100588 26.5841890110709222  5.1876375482964363   F   F   F
  8.2702482702524058 28.5199309293527854  5.1876375482964407   F   F   F
  4.4704044704067067 20.3898148725689623  5.1876375482964390   F   F   F
  6.0350460350490529 22.3255567908508183  5.1876375482964390   F   F   F
  7.5996875996914017 24.2612987091326850  5.1876375482964390   F   F   F
  9.1643291643337488 26.1970406274145518  5.1876375482964390   F   F   F
 10.7289707289760941 28.1327825456964113  5.1876375482964399   F   F   F
  3.7998437998456991 16.1311826523488584  5.1876375482964381   F   F   F
  5.3644853644880479 18.0669245706307251  5.1876375482964390   F   F   F
  6.9291269291303950 20.0026664889125882  5.1876375482964407   F   F   F
  8.4937684937727393 21.9384084071944514  5.1876375482964372   F   F   F
 10.0584100584150882 23.8741503254763145  5.1876375482964381   F   F   F
 11.6230516230574388 25.8098922437581777  5.1876375482964399   F   F   F
 13.1876931876997787 27.7456341620400408  5.1876375482964399   F   F   F
  3.1292831292846959 11.8725504321287616  5.1876375482964399   F   F   F
  4.6939246939270420 13.8082923504106247  5.1876375482964399   F   F   F
  6.2585662585693891 15.7440342686924861  5.1876375482964381   F   F   F
  7.8232078232117361 17.6797761869743510  5.1876375482964407   F   F   F
  9.3878493878540823 19.6155181052562142  5.1876375482964407   F   F   F
 10.9524909524964293 21.5512600235380773  5.1876375482964390   F   F   F
 12.5171325171387764 23.4870019418199369  5.1876375482964407   F   F   F
 14.0817740817811234 25.4227438601018001  5.1876375482964399   F   F   F
 15.6464156464234705 27.3584857783836668  5.1876375482964416   F   F   F
  4.0233640233660353  9.5496601301905262  5.1876375482964372   F   F   F
  5.5880055880083823 11.4854020484723893  5.1876375482964381   F   F   F
  7.1526471526507311 13.4211439667542525  5.1876375482964399   F   F   F
  8.7172887172930746 15.3568858850361174  5.1876375482964390   F   F   F
 10.2819302819354252 17.2926278033179806  5.1876375482964381   F   F   F
 11.8465718465777705 19.2283697215998437  5.1876375482964407   F   F   F
 13.4112134112201176 21.1641116398817069  5.1876375482964381   F   F   F
 14.9758549758624682 23.0998535581635700  5.1876375482964381   F   F   F
 16.5404965405048117 25.0355954764454331  5.1876375482964399   F   F   F
  3.3528033528050298  5.2910279099704267  5.1876375482964399   F   F   F
  4.9174449174473773  7.2267698282522899  5.1876375482964399   F   F   F
  6.4820864820897244  9.1625117465341539  5.1876375482964381   F   F   F
  8.0467280467320723 11.0982536648160188  5.1876375482964399   F   F   F
  9.6113696113744176 13.0339955830978802  5.1876375482964407   F   F   F
 11.1760111760167646 14.9697375013797398  5.1876375482964381   F   F   F
 12.7406527406591099 16.9054794196616065  5.1876375482964407   F   F   F
 14.3052943053014570 18.8412213379434732  5.1876375482964390   F   F   F
 15.8699358699438040 20.7769632562253364  5.1876375482964390   F   F   F
  2.6822426822440231  1.0323956897503275  5.1876375482964390   F   F   F
  4.2468842468863706  2.9681376080321904  5.1876375482964390   F   F   F
  5.8115258115287176  4.9038795263140535  5.1876375482964399   F   F   F
  7.3761673761710664  6.8396214445959167  5.1876375482964399   F   F   F
  8.9408089408134117  8.7753633628777798  5.1876375482964399   F   F   F
 10.5054505054557570 10.7111052811596466  5.1876375482964381   F   F   F
 12.0700920700981076 12.6468471994415079  5.1876375482964407   F   F   F
 13.6347336347404511 14.5825891177233729  5.1876375482964390   F   F   F
 15.1993751993828017 16.5183310360052324  5.1876375482964407   F   F   F
 16.7640167640251434 18.4540729542870992  5.1876375482964425   F   F   F
  6.7056067056100579  2.5809892243758181  5.1876375482964399   F   F   F
  8.2702482702524076  4.5167311426576813  5.1876375482964399   F   F   F
  9.8348898348947547  6.4524730609395444  5.1876375482964399   F   F   F
 11.3995313995370999  8.3882149792214076  5.1876375482964381   F   F   F
 12.9641729641794470 10.3239568975032707  5.1876375482964407   F   F   F
 14.5288145288217923 12.2596988157851339  5.1876375482964390   F   F   F
 16.0934560934641411 14.1954407340669917  5.1876375482964390   F   F   F
  9.1643291643337470  2.1938408407194459  5.1876375482964381   F   F   F
 10.7289707289760923  4.1295827590013090  5.1876375482964399   F   F   F
 12.2936122936184393  6.0653246772831704  5.1876375482964381   F   F   F
 13.8582538582607881  8.0010665955650353  5.1876375482964399   F   F   F
 15.4228954229031352  9.9368085138469002  5.1876375482964407   F   F   F
 11.6230516230574317  1.8066924570630731  5.1876375482964381   F   F   F
 13.1876931876997840  3.7424343753449358  5.1876375482964399   F   F   F
 14.7523347523421240  5.6781762936267990  5.1876375482964399   F   F   F
 16.3169763169844764  7.6139182119086639  5.1876375482964390   F   F   F
 14.0817740817811199  1.4195440734066997  5.1876375482964399   F   F   F
 15.6464156464234723  3.3552859916885631  5.1876375482964399   F   F   F
  5.5880055880083823 27.4875352396024617  7.2199104958439246   F   F   F
  7.1526471526507303 29.4232771578843213  7.2199104958439246   F   F   F
  4.9174449174473782 23.2289030193823578  7.2199104958439220   F   F   F
  6.4820864820897253 25.1646449376642245  7.2199104958439246   F   F   F
  8.0467280467320741 27.1003868559460876  7.2199104958439246   F   F   F
  9.6113696113744194 29.0361287742279544  7.2199104958439255   F   F   F
  5.8115258115287176 20.9060127174441241  7.2199104958439211   F   F   F
  7.3761673761710638 22.8417546357259873  7.2199104958439211   F   F   F
  8.9408089408134135 24.7774965540078504  7.2199104958439246   F   F   F
 10.5054505054557605 26.7132384722897172  7.2199104958439255   F   F   F
 12.0700920700981058 28.6489803905715803  7.2199104958439229   F   F   F
  5.1409651409677126 16.6473804972240238  7.2199104958439229   F   F   F
  6.7056067056100606 18.5831224155058869  7.2199104958439220   F   F   F
  8.2702482702524058 20.5188643337877537  7.2199104958439246   F   F   F
  9.8348898348947529 22.4546062520696132  7.2199104958439237   F   F   F
 11.3995313995370999 24.3903481703514728  7.2199104958439220   F   F   F
 12.9641729641794452 26.3260900886333431  7.2199104958439255   F   F   F
 14.5288145288217905 28.2618320069152063  7.2199104958439229   F   F   F
  4.4704044704067067 12.3887482770039234  7.2199104958439229   F   F   F
  6.0350460350490538 14.3244901952857902  7.2199104958439211   F   F   F
  7.5996875996914017 16.2602321135676569  7.2199104958439246   F   F   F
  9.1643291643337470 18.1959740318495165  7.2199104958439237   F   F   F
 10.7289707289760923 20.1317159501313796  7.2199104958439202   F   F   F
 12.2936122936184411 22.0674578684132427  7.2199104958439282   F   F   F
 13.8582538582607899 24.0031997866951095  7.2199104958439255   F   F   F
 15.4228954229031352 25.9389417049769655  7.2199104958439255   F   F   F
 16.9875369875454822 27.8746836232588358  7.2199104958439246   F   F   F
  5.3644853644880470 10.0658579750656916  7.2199104958439237   F   F   F
  6.9291269291303967 12.0015998933475529  7.2199104958439237   F   F   F
  8.4937684937727411 13.9373418116294179  7.2199104958439246   F   F   F
 10.0584100584150882 15.8730837299112846  7.2199104958439246   F   F   F
 11.6230516230574352 17.8088256481931424  7.2199104958439237   F   F   F
 13.1876931876997823 19.7445675664750055  7.2199104958439220   F   F   F
 14.7523347523421293 21.6803094847568651  7.2199104958439220   F   F   F
 16.3169763169844799 23.6160514030387318  7.2199104958439246   F   F   F
 17.8816178816268234 25.5517933213205950  7.2199104958439264   F   F   F
  4.6939246939270411  5.8072257548455912  7.2199104958439229   F   F   F
  6.2585662585693882  7.7429676731274535  7.2199104958439211   F   F   F
  7.8232078232117352  9.6787095914093175  7.2199104958439237   F   F   F
  9.3878493878540823 11.6144515096911807  7.2199104958439229   F   F   F
 10.9524909524964276 13.5501934279730456  7.2199104958439220   F   F   F
 12.5171325171387799 15.4859353462549070  7.2199104958439220   F   F   F
 14.0817740817811252 17.4216772645367719  7.2199104958439220   F   F   F
 15.6464156464234669 19.3574191828186351  7.2199104958439211   F   F   F
 17.2110572110658175 21.2931611011004982  7.2199104958439255   F   F   F
  4.0233640233660353  1.5485935346254915  7.2199104958439229   F   F   F
  5.5880055880083814  3.4843354529073549  7.2199104958439237   F   F   F
  7.1526471526507285  5.4200773711892190  7.2199104958439211   F   F   F
  8.7172887172930746  7.3558192894710803  7.2199104958439211   F   F   F
 10.2819302819354235  9.2915612077529453  7.2199104958439237   F   F   F
 11.8465718465777705 11.2273031260348066  7.2199104958439237   F   F   F
 13.4112134112201176 13.1630450443166716  7.2199104958439220   F   F   F
 14.9758549758624628 15.0987869625985383  7.2199104958439237   F   F   F
 16.5404965405048152 17.0345288808803978  7.2199104958439246   F   F   F
 18.1051381051471552 18.9702707991622681  7.2199104958439264   F   F   F
  8.0467280467320688  3.0971870692509813  7.2199104958439237   F   F   F
  9.6113696113744176  5.0329289875328467  7.2199104958439229   F   F   F
 11.1760111760167646  6.9686709058147080  7.2199104958439211   F   F   F
 12.7406527406591117  8.9044128240965730  7.2199104958439229   F   F   F
 14.3052943053014605 10.8401547423784343  7.2199104958439237   F   F   F
 15.8699358699438076 12.7758966606602993  7.2199104958439211   F   F   F
 17.4345774345861528 14.7116385789421606  7.2199104958439237   F   F   F
 10.5054505054557588  2.7100386855946086  7.2199104958439229   F   F   F
 12.0700920700981040  4.6457806038764744  7.2199104958439229   F   F   F
 13.6347336347404511  6.5815225221583358  7.2199104958439229   F   F   F
 15.1993751993828017  8.5172644404402007  7.2199104958439220   F   F   F
 16.7640167640251470 10.4530063587220603  7.2199104958439246   F   F   F
 12.9641729641794434  2.3228903019382368  7.2199104958439229   F   F   F
 14.5288145288217923  4.2586322202201012  7.2199104958439237   F   F   F
 16.0934560934641375  6.1943741385019653  7.2199104958439220   F   F   F
 17.6580976581064846  8.1301160567838284  7.2199104958439246   F   F   F
 15.4228954229031352  1.9357419182818640  7.2199104958439229   F   F   F
 16.9875369875454822  3.8714838365637290  7.2199104958439229   F   F   F
  6.9291269291303950 28.0037330844776200  9.2521834433914076   T   T   T
  8.4937684937727429 29.9394750027594796  9.2521834433914023   T   T   T
  6.2585662585693917 23.7451008642575232  9.2521834433914076   T   T   T
  7.8232078232117361 25.6808427825393899  9.2521834433914076   T   T   T
  9.3878493878540841 27.6165847008212495  9.2521834433914076   T   T   T
 10.9524909524964293 29.5523266191031126  9.2521834433914023   T   T   T
  7.1526471526507285 21.4222105623192896  9.2521834433914076   T   T   T
  8.7172887172930746 23.3579524806011456  9.2521834433914041   T   T   T
 10.2819302819354217 25.2936943988830123  9.2521834433914041   T   T   T
 11.8465718465777723 27.2294363171648790  9.2521834433914041   T   T   T
 13.4112134112201193 29.1651782354467386  9.2521834433914041   T   T   T
  6.4820864820897235 17.1635783420991892  9.2521834433914076   T   T   T
  8.0467280467320705 19.0993202603810523  9.2521834433914023   T   T   T
  9.6113696113744194 21.0350621786629119  9.2521834433914076   T   T   T
 11.1760111760167646 22.9708040969447786  9.2521834433914041   T   T   T
 12.7406527406591081 24.9065460152266382  9.2521834433914023   T   T   T
 14.3052943053014623 26.8422879335085049  9.2521834433914076   T   T   T
 15.8699358699438040 28.7780298517903645  9.2521834433914041   T   T   T
  5.8115258115287185 12.9049461218790906  9.2521834433914076   T   T   T
  7.3761673761710655 14.8406880401609502  9.2521834433914076   T   T   T
  8.9408089408134135 16.7764299584428151  9.2521834433914076   T   T   T
 10.5054505054557588 18.7121718767246819  9.2521834433914041   T   T   T
 12.0700920700981058 20.6479137950065379  9.2521834433914076   T   T   T
 13.6347336347404546 22.5836557132884046  9.2521834433914076   T   T   T
 15.1993751993827981 24.5193976315702677  9.2521834433914076   T   T   T
 16.7640167640251470 26.4551395498521309  9.2521834433914076   T   T   T
 18.3286583286674940 28.3908814681339940  9.2521834433914059   T   T   T
  6.7056067056100597 10.5820558199408534  9.2521834433914076   T   T   T
  8.2702482702524041 12.5177977382227184  9.2521834433914076   T   T   T
  9.8348898348947547 14.4535396565045797  9.2521834433914076   T   T   T
 11.3995313995371017 16.3892815747864447  9.2521834433914076   T   T   T
 12.9641729641794488 18.3250234930683078  9.2521834433914023   T   T   T
 14.5288145288217958 20.2607654113501710  9.2521834433914076   T   T   T
 16.0934560934641446 22.1965073296320377  9.2521834433914076   T   T   T
 17.6580976581064881 24.1322492479138901  9.2521834433914041   T   T   T
 19.2227392227488352 26.0679911661957604  9.2521834433914094   T   T   T
  6.0350460350490538  6.3234235997207540  9.2521834433914059   T   T   T
  7.5996875996914000  8.2591655180026180  9.2521834433914076   T   T   T
  9.1643291643337488 10.1949074362844794  9.2521834433914076   T   T   T
 10.7289707289760923 12.1306493545663443  9.2521834433914076   T   T   T
 12.2936122936184411 14.0663912728482074  9.2521834433914076   T   T   T
 13.8582538582607899 16.0021331911300706  9.2521834433914076   T   T   T
 15.4228954229031352 17.9378751094119373  9.2521834433914076   T   T   T
 16.9875369875454787 19.8736170276937933  9.2521834433914076   T   T   T
 18.5521785521878293 21.8093589459756600  9.2521834433914076   T   T   T
  5.3644853644880461  2.0647913795006549  9.2521834433914059   T   T   T
  6.9291269291303941  4.0005332977825203  9.2521834433914059   T   T   T
  8.4937684937727411  5.9362752160643808  9.2521834433914059   T   T   T
 10.0584100584150882  7.8720171343462457  9.2521834433914076   T   T   T
 11.6230516230574352  9.8077590526281071  9.2521834433914076   T   T   T
 13.1876931876997823 11.7435009709099720  9.2521834433914076   T   T   T
 14.7523347523421329 13.6792428891918334  9.2521834433914076   T   T   T
 16.3169763169844764 15.6149848074736983  9.2521834433914076   T   T   T
 17.8816178816268234 17.5507267257555597  9.2521834433914076   T   T   T
 19.4462594462691669 19.4864686440374228  9.2521834433914076   T   T   T
  9.3878493878540805  3.6133849141261472  9.2521834433914059   T   T   T
 10.9524909524964293  5.5491268324080085  9.2521834433914076   T   T   T
 12.5171325171387764  7.4848687506898735  9.2521834433914076   T   T   T
 14.0817740817811234  9.4206106689717348  9.2521834433914076   T   T   T
 15.6464156464234723 11.3563525872535998  9.2521834433914076   T   T   T
 17.2110572110658175 13.2920945055354611  9.2521834433914076   T   T   T
 18.7756987757081646 15.2278364238173278  9.2521834433914076   T   T   T
 11.8465718465777687  3.2262365304697744  9.2521834433914076   T   T   T
 13.4112134112201158  5.1619784487516363  9.2521834433914076   T   T   T
 14.9758549758624628  7.0977203670335003  9.2521834433914076   T   T   T
 16.5404965405048152  9.0334622853153625  9.2521834433914076   T   T   T
 18.1051381051471587 10.9692042035972275  9.2521834433914076   T   T   T
 14.3052943053014552  2.8390881468134035  9.2521834433914076   T   T   T
 15.8699358699438040  4.7748300650952640  9.2521834433914076   T   T   T
 17.4345774345861493  6.7105719833771289  9.2521834433914094   T   T   T
 18.9992189992284963  8.6463139016589903  9.2521834433914076   T   T   T
 16.7640167640251470  2.4519397631570286  9.2521834433914076   T   T   T
 18.3286583286674940  4.3876816814388917  9.2521834433914041   T   T   T
  8.2702482702524058 28.5199309293527854 11.2844563909388835   T   T   T
  9.8348898348947529 30.4556728476346450 11.2844563909388835   T   T   T
  7.5996875996914000 24.2612987091326815 11.2844563909388871   T   T   T
  9.1643291643337470 26.1970406274145482 11.2844563909388889   T   T   T
 10.7289707289760958 28.1327825456964113 11.2844563909388835   T   T   T
 12.2936122936184429 30.0685244639782709 11.2844563909388889   T   T   T
  8.4937684937727411 21.9384084071944550 11.2844563909388889   T   T   T
 10.0584100584150899 23.8741503254763145 11.2844563909388906   T   T   T
 11.6230516230574370 25.8098922437581813 11.2844563909388889   T   T   T
 13.1876931876997823 27.7456341620400408 11.2844563909388871   T   T   T
 14.7523347523421275 29.6813760803219076 11.2844563909388906   T   T   T
  7.8232078232117352 17.6797761869743510 11.2844563909388906   T   T   T
  9.3878493878540823 19.6155181052562106 11.2844563909388889   T   T   T
 10.9524909524964293 21.5512600235380738 11.2844563909388889   T   T   T
 12.5171325171387764 23.4870019418199405 11.2844563909388906   T   T   T
 14.0817740817811234 25.4227438601018036 11.2844563909388889   T   T   T
 15.6464156464234705 27.3584857783836668 11.2844563909388889   T   T   T
 17.2110572110658104 29.2942276966655264 11.2844563909388853   T   T   T
  7.1526471526507320 13.4211439667542560 11.2844563909388889   T   T   T
  8.7172887172930782 15.3568858850361174 11.2844563909388889   T   T   T
 10.2819302819354235 17.2926278033179806 11.2844563909388835   T   T   T
 11.8465718465777758 19.2283697215998437 11.2844563909388942   T   T   T
 13.4112134112201193 21.1641116398817104 11.2844563909388889   T   T   T
 14.9758549758624646 23.0998535581635700 11.2844563909388889   T   T   T
 16.5404965405048117 25.0355954764454296 11.2844563909388906   T   T   T
 18.1051381051471587 26.9713373947272892 11.2844563909388906   T   T   T
 19.6697796697895058 28.9070793130091594 11.2844563909388906   T   T   T
  8.0467280467320705 11.0982536648160188 11.2844563909388889   T   T   T
  9.6113696113744176 13.0339955830978838 11.2844563909388889   T   T   T
 11.1760111760167646 14.9697375013797433 11.2844563909388889   T   T   T
 12.7406527406591099 16.9054794196616065 11.2844563909388889   T   T   T
 14.3052943053014570 18.8412213379434661 11.2844563909388889   T   T   T
 15.8699358699438076 20.7769632562253364 11.2844563909388906   T   T   T
 17.4345774345861528 22.7127051745071924 11.2844563909388871   T   T   T
 18.9992189992284963 24.6484470927890627 11.2844563909388889   T   T   T
 20.5638605638708505 26.5841890110709222 11.2844563909388906   T   T   T
  7.3761673761710664  6.8396214445959194 11.2844563909388924   T   T   T
  8.9408089408134117  8.7753633628777816 11.2844563909388889   T   T   T
 10.5054505054557570 10.7111052811596430 11.2844563909388889   T   T   T
 12.0700920700981076 12.6468471994415097 11.2844563909388889   T   T   T
 13.6347336347404546 14.5825891177233729 11.2844563909388906   T   T   T
 15.1993751993827999 16.5183310360052324 11.2844563909388871   T   T   T
 16.7640167640251470 18.4540729542871027 11.2844563909388942   T   T   T
 18.3286583286674940 20.3898148725689623 11.2844563909388906   T   T   T
 19.8932998933098446 22.3255567908508255 11.2844563909388906   T   T   T
  6.7056067056100597  2.5809892243758195 11.2844563909388871   T   T   T
  8.2702482702524076  4.5167311426576831 11.2844563909388889   T   T   T
  9.8348898348947529  6.4524730609395462 11.2844563909388889   T   T   T
 11.3995313995370999  8.3882149792214094 11.2844563909388889   T   T   T
 12.9641729641794470 10.3239568975032743 11.2844563909388889   T   T   T
 14.5288145288217923 12.2596988157851374 11.2844563909388889   T   T   T
 16.0934560934641411 14.1954407340670006 11.2844563909388889   T   T   T
 17.6580976581064881 16.1311826523488584 11.2844563909388889   T   T   T
 19.2227392227488316 18.0669245706307251 11.2844563909388889   T   T   T
 20.7873807873911858 20.0026664889125882 11.2844563909388942   T   T   T
 10.7289707289760923  4.1295827590013108 11.2844563909388906   T   T   T
 12.2936122936184411  6.0653246772831722 11.2844563909388906   T   T   T
 13.8582538582607899  8.0010665955650353 11.2844563909388906   T   T   T
 15.4228954229031352  9.9368085138469002 11.2844563909388889   T   T   T
 16.9875369875454858 11.8725504321287652 11.2844563909388889   T   T   T
 18.5521785521878293 13.8082923504106247 11.2844563909388906   T   T   T
 20.1168201168301763 15.7440342686924879 11.2844563909388889   T   T   T
 13.1876931876997840  3.7424343753449398 11.2844563909388889   T   T   T
 14.7523347523421275  5.6781762936268017 11.2844563909388889   T   T   T
 16.3169763169844764  7.6139182119086639 11.2844563909388889   T   T   T
 17.8816178816268270  9.5496601301905262 11.2844563909388889   T   T   T
 19.4462594462691705 11.4854020484723947 11.2844563909388889   T   T   T
 15.6464156464234687  3.3552859916885662 11.2844563909388906   T   T   T
 17.2110572110658175  5.2910279099704267 11.2844563909388942   T   T   T
 18.7756987757081610  7.2267698282522916 11.2844563909388906   T   T   T
 20.3403403403505081  9.1625117465341557 11.2844563909388889   T   T   T
 18.1051381051471623  2.9681376080321922 11.2844563909388942   T   T   T
 19.6697796697895058  4.9038795263140571 11.2844563909388889   T   T   T
  2.0116820117556631 -2.8261832005502110 16.2210966668977221   T   T   T
  3.4645634646378420  0.0000000001413092 16.2210966668977221   T   T   T
  4.9174449175200223  2.8261832008328303 16.2210966668977257   T   T   T
  6.3703263704022008  5.6523664015243540 16.2210966668977221   T   T   T
  7.8232078232843811  8.4785496022158746 16.2210966668977221   T   T   T
  9.2760892761665641 11.3047328029073917 16.2210966668977221   T   T   T
 10.7289707290487417 14.1309160035989159 16.2210966668977221   T   T   T
 12.1818521819309193 16.9570992042904329 16.2210966668977221   T   T   T
 -0.2235202234476874 19.7832824049819571 16.2210966668977257   T   T   T
  1.2293612294344887 22.6094656056734777 16.2210966668977221   T   T   T
  8.1584881584195958 22.6094656053908558 18.0455235173545034   T   T   T
  9.6113696113017735 25.4356488060823764 18.0455235173545034   T   T   T
 10.3936903936229506 -0.0000000001413076 18.0455235173544999   T   T   T
 11.8465718465051282  2.8261832005502114 18.0455235173544999   T   T   T
 -0.5588005588734821  5.6523664012417330 18.0455235173544999   T   T   T
  0.8940808940086991  8.4785496019332527 18.0455235173544963   T   T   T
  2.3469623468908800 11.3047328026247804 18.0455235173544999   T   T   T
  3.7998437997730590 14.1309160033162975 18.0455235173544963   T   T   T
  5.2527252526552362 16.9570992040078181 18.0455235173544999   T   T   T
  6.7056067055374156 19.7832824046993387 18.0455235173544999   T   T   T
  1.2852412853145729 -4.2392748008959718 13.4844563909388935   T   T   T
  2.7381227381967528 -1.4130916002044509 13.4844563909388953   T   T   T
  4.1910041910789317  1.4130916004870695 13.4844563909388953   T   T   T
  5.6438856439611129  4.2392748011785919 13.4844563909388935   T   T   T
  7.0967670968432923  7.0654580018701143 13.4844563909388953   T   T   T
  8.5496485497254735  9.8916412025616332 13.4844563909388970   T   T   T
 10.0025300026076529 12.7178244032531538 13.4844563909388970   T   T   T
 11.4554114554898305 15.5440076039446744 13.4844563909388970   T   T   T
 -0.9499609498887778 18.3701908046361986 13.4844563909388970   T   T   T
  0.5029205029933999 21.1963740053277157 13.4844563909388970   T   T   T
  7.4320474319785088 21.1963740050450973 15.3088832413956712   T   T   T
  8.8849288848606864 24.0225572057366143 15.3088832413956695   T   T   T
  9.6672496671818582 -1.4130916004870684 15.3088832413956695   T   T   T
 11.1201311200640394  1.4130916002044509 15.3088832413956695   T   T   T
 -1.2852412853145714  4.2392748008959726 15.3088832413956695   T   T   T
  0.1676401675676098  7.0654580015874924 15.3088832413956695   T   T   T
  1.6205216204497910  9.8916412022790183 15.3088832413956695   T   T   T
  3.0734030733319706 12.7178244029705372 15.3088832413956695   T   T   T
  4.5262845262141456 15.5440076036620560 15.3088832413956712   T   T   T
  5.9791659790963276 18.3701908043535802 15.3088832413956712   T   T   T
  9.5713594914369278 21.8803103398950611 16.2210966668977292   T   T   T
 11.0242409443191054 24.7064935405865853 16.2210966668977257   T   T   T
 11.8065617266402771 -0.7291552656371036 16.2210966668977257   T   T   T
 -0.5988106787383310  2.0970279350544203 16.2210966668977221   T   T   T
  0.8540707741438460  4.9232111357459392 16.2210966668977221   T   T   T
  2.3069522270260268  7.7493943364374616 16.2210966668977221   T   T   T
  3.7598336799082093 10.5755775371289857 16.2210966668977221   T   T   T
  5.2127151327903887 13.4017607378205028 16.2210966668977221   T   T   T
  6.6655965856725690 16.2279439385120234 16.2210966668977257   T   T   T
  8.1184780385547430 19.0541271392035441 16.2210966668977257   T   T   T
  4.0951140150434222 24.7064935403039669 18.0455235173544999   T   T   T
  4.8774347973645948 -0.7291552659197221 18.0455235173544999   T   T   T
  6.3303162502467742  2.0970279347717993 18.0455235173544999   T   T   T
  7.7831977031289536  4.9232111354633208 18.0455235173544999   T   T   T
  9.2360791560111348  7.7493943361548405 18.0455235173544999   T   T   T
 10.6889606088933125 10.5755775368463603 18.0455235173544963   T   T   T
 12.1418420617754919 13.4017607375378880 18.0455235173544999   T   T   T
 -0.2635303436031145 16.2279439382294051 18.0455235173544999   T   T   T
  1.1893511092790634 19.0541271389209292 18.0455235173544999   T   T   T
  2.6422325621612437 21.8803103396124463 18.0455235173544999   T   T   T
  0.5988106787383352 -2.0970279350544168 18.0455235173544999   T   T   T
  2.0516921316205150  0.7291552656371030 18.0455235173544999   T   T   T
  3.5045735845026948  3.5553384663286258 18.0455235173544963   T   T   T
  4.9574550373848743  6.3815216670201460 18.0455235173544963   T   T   T
  6.4103364902670528  9.2077048677116657 18.0455235173544999   T   T   T
  7.8632179431492339 12.0338880684031881 18.0455235173544999   T   T   T
  9.3160993960314151 14.8600712690947141 18.0455235173544999   T   T   T
 10.7689808489135963 17.6862544697862383 18.0455235173544963   T   T   T
 12.2218623017957722 20.5124376704777518 18.0455235173545034   T   T   T
 -0.1835101035828367 23.3386208711692724 18.0455235173544999   T   T   T
  6.7456168256928475 23.3386208714518908 16.2210966668977292   T   T   T
  7.5279376080140183 -2.0970279347717979 16.2210966668977221   T   T   T
  8.9808190608961986  0.7291552659197231 16.2210966668977221   T   T   T
 10.4337005137783816  3.5553384666112442 16.2210966668977257   T   T   T
 11.8865819666605574  6.3815216673027644 16.2210966668977257   T   T   T
 -0.5187904387180515  9.2077048679942841 16.2210966668977221   T   T   T
  0.9340910141641302 12.0338880686858101 16.2210966668977221   T   T   T
  2.3869724670463088 14.8600712693773325 16.2210966668977221   T   T   T
  3.8398539199284878 17.6862544700688495 16.2210966668977257   T   T   T
  5.2927353728106663 20.5124376707603702 16.2210966668977257   T   T   T
  8.8449187649958372 20.4672187395492990 13.4844563909388970   T   T   T
 10.2978002178780166 23.2934019402408197 13.4844563909388970   T   T   T
 11.0801210001991866 -2.1422468659828646 13.4844563909388953   T   T   T
 -1.3252514051794204  0.6839363347086594 13.4844563909388935   T   T   T
  0.1276300477027570  3.5101195354001793 13.4844563909388953   T   T   T
  1.5805115005849375  6.3363027360917004 13.4844563909388935   T   T   T
  3.0333929534671196  9.1624859367832254 13.4844563909388953   T   T   T
  4.4862744063492999 11.9886691374747443 13.4844563909388953   T   T   T
  5.9391558592314784 14.8148523381662596 13.4844563909388970   T   T   T
  7.3920373121136551 17.6410355388577820 13.4844563909388970   T   T   T
  3.3686732886023343 23.2934019399582048 15.3088832413956712   T   T   T
  4.1509940709235060 -2.1422468662654834 15.3088832413956677   T   T   T
  5.6038755238056863  0.6839363344260384 15.3088832413956695   T   T   T
  7.0567569766878639  3.5101195351175587 15.3088832413956695   T   T   T
  8.5096384295700442  6.3363027358090793 15.3088832413956712   T   T   T
  9.9625198824522254  9.1624859365006017 15.3088832413956712   T   T   T
 11.4154013353344048 11.9886691371921259 15.3088832413956712   T   T   T
 -0.9899710700442041 14.8148523378836448 15.3088832413956677   T   T   T
  0.4629103828379743 17.6410355385751636 15.3088832413956730   T   T   T
  1.9157918357201558 20.4672187392666842 15.3088832413956712   T   T   T
 -0.1276300477027537 -3.5101195354001771 15.3088832413956695   T   T   T
  1.3252514051794251 -0.6839363347086583 15.3088832413956677   T   T   T
  2.7781328580616051  2.1422468659828646 15.3088832413956695   T   T   T
  4.2310143109437854  4.9684300666743848 15.3088832413956695   T   T   T
  5.6838957638259640  7.7946132673659063 15.3088832413956695   T   T   T
  7.1367772167081451 10.6207964680574261 15.3088832413956712   T   T   T
  8.5896586695903245 13.4469796687489520 15.3088832413956712   T   T   T
 10.0425401224725075 16.2731628694404762 15.3088832413956695   T   T   T
 11.4954215753546833 19.0993460701319933 15.3088832413956766   T   T   T
 -0.9099508300239270 21.9255292708235139 15.3088832413956712   T   T   T
  6.0191760992517569 21.9255292711061287 13.4844563909388970   T   T   T
  6.8014968815729295 -3.5101195351175591 13.4844563909388935   T   T   T
  8.2543783344551098 -0.6839363344260388 13.4844563909388935   T   T   T
  9.7072597873372892  2.1422468662654826 13.4844563909388935   T   T   T
 11.1601412402194704  4.9684300669570041 13.4844563909388970   T   T   T
 -1.2452311651591415  7.7946132676485229 13.4844563909388935   T   T   T
  0.2076502877230405 10.6207964683400498 13.4844563909388953   T   T   T
  1.6605317406052189 13.4469796690315704 13.4844563909388970   T   T   T
  3.1134131934873972 16.2731628697230875 13.4844563909388970   T   T   T
  4.5662946463695775 19.0993460704146081 13.4844563909388970   T   T   T
