Mo N  Mo Pd Mo N  Mo N  Mo N 
 1.0000000000000000
    12.0366544720698876    0.0000000000000000    0.0000000000000007
     3.0091636180174719    7.9501999999999997    3.0091636180174723
     0.0000000000000000    0.0000000000000000   32.0366544720698911
 Mo  N   Mo  Pd  Mo  N   Mo  N   Mo  N  
  16   8   5   1  10   8  16   8  16   8
Selective dynamics
Cartesian
  0.0000000000000000  0.0000000000000000 15.6421817837827586   F   F   F
  3.0091636180174719  0.0000000000000000 12.6330181657652876   F   F   F
  0.0000000000000000  0.0000000000000000 12.6330181657652876   F   F   F
  3.0091636180174710  0.0000000000000000 15.6421817837827586   F   F   F
  4.5137454270262083  5.9626500000000000 14.1375999747740249   F   F   F
  7.5229090450436793  5.9626500000000000 17.1467635927914976   T   T   T
  7.5229090450436802  5.9626500000000000 14.1375999747740249   F   F   F
  4.5137454270262083  5.9626500000000000 17.1467635927914976   T   T   T
  3.0091636180174719  3.9750999999999999 12.6330181657652876   F   F   F
  6.0183272360349438  3.9750999999999999 15.6421817837827586   F   F   F
  3.0091636180174719  3.9750999999999999 15.6421817837827586   F   F   F
  6.0183272360349438  3.9750999999999999 12.6330181657652876   F   F   F
  4.5137454270262074  1.9875499999999999 14.1375999747740249   F   F   F
  1.5045818090087359  1.9875499999999999 11.1284363567565538   F   F   F
  1.5045818090087359  1.9875499999999999 14.1375999747740249   F   F   F
  4.5137454270262074  1.9875499999999999 11.1284363567565538   F   F   F
  1.5045818090087359  0.0000000000000000 11.1284363567565521   F   F   F
  4.5137454270262074  0.0000000000000000 14.1375999747740213   F   F   F
  3.0091636180174719  5.9626500000000000 15.6421817837827586   F   F   F
  6.0183272360349438  5.9626500000000000 12.6330181657652894   F   F   F
  1.5045818090087359  3.9750999999999999 14.1375999747740249   F   F   F
  4.5137454270262083  3.9750999999999999 17.1467635927914976   T   T   T
  3.0091636180174719  1.9875499999999999 12.6330181657652876   F   F   F
  6.0183272360349438  1.9875499999999999 15.6421817837827586   F   F   F
  0.0000000000000000  0.0000000000000000 21.6605090198177059   T   T   T
  3.0091636180174719  0.0000000000000000 18.6513454018002314   T   T   T
  0.0000000000000000  0.0000000000000000 18.6513454018002314   T   T   T
  3.0091636180174710  0.0000000000000000 21.6605090198177059   T   T   T
  4.5137454270262083  5.9626500000000000 20.1559272108089651   T   T   T
  7.5229090450436793  5.9626500000000000 23.1650908288264397   T   T   T
  7.5229090450436802  5.9626500000000000 20.1559272108089651   T   T   T
  4.5137454270262083  5.9626500000000000 23.1650908288264397   T   T   T
  3.0091636180174719  3.9750999999999999 18.6513454018002349   T   T   T
  6.0183272360349438  3.9750999999999999 21.6605090198177024   T   T   T
  3.0091636180174719  3.9750999999999999 21.6605090198177024   T   T   T
  6.0183272360349438  3.9750999999999999 18.6513454018002349   T   T   T
  4.5137454270262074  1.9875499999999999 20.1559272108089687   T   T   T
  1.5045818090087359  1.9875499999999999 17.1467635927914941   F   F   F
  1.5045818090087359  1.9875499999999999 20.1559272108089687   T   T   T
  4.5137454270262074  1.9875499999999999 17.1467635927914941   F   F   F
  1.5045818090087359  0.0000000000000000 17.1467635927914976   T   T   T
  4.5137454270262074  0.0000000000000000 20.1559272108089651   T   T   T
  3.0091636180174719  5.9626500000000000 21.6605090198177059   T   T   T
  6.0183272360349438  5.9626500000000000 18.6513454018002314   T   T   T
  1.5045818090087359  3.9750999999999999 20.1559272108089687   T   T   T
  4.5137454270262083  3.9750999999999999 23.1650908288264432   T   T   T
  3.0091636180174719  1.9875499999999999 18.6513454018002278   T   T   T
  6.0183272360349438  1.9875499999999999 21.6605090198177024   T   T   T
  6.0183272360349438  0.0000000000000000 15.6421817837827586   F   F   F
  9.0274908540524166  0.0000000000000000 12.6330181657652876   F   F   F
  6.0183272360349438  0.0000000000000000 12.6330181657652876   F   F   F
  9.0274908540524148  0.0000000000000000 15.6421817837827586   F   F   F
 10.5320726630611521  5.9626500000000000 14.1375999747740249   F   F   F
 13.5412362810786231  5.9626500000000000 17.1467635927914976   T   T   T
 13.5412362810786249  5.9626500000000000 14.1375999747740249   F   F   F
 10.5320726630611521  5.9626500000000000 17.1467635927914976   T   T   T
  9.0274908540524166  3.9750999999999999 12.6330181657652876   F   F   F
 12.0366544720698876  3.9750999999999999 15.6421817837827586   F   F   F
  9.0274908540524166  3.9750999999999999 15.6421817837827586   F   F   F
 12.0366544720698876  3.9750999999999999 12.6330181657652876   F   F   F
 10.5320726630611503  1.9875499999999999 14.1375999747740249   F   F   F
  7.5229090450436793  1.9875499999999999 11.1284363567565538   F   F   F
  7.5229090450436793  1.9875499999999999 14.1375999747740249   F   F   F
 10.5320726630611503  1.9875499999999999 11.1284363567565538   F   F   F
  7.5229090450436793  0.0000000000000000 11.1284363567565521   F   F   F
 10.5320726630611503  0.0000000000000000 14.1375999747740213   F   F   F
  9.0274908540524166  5.9626500000000000 15.6421817837827586   F   F   F
 12.0366544720698876  5.9626500000000000 12.6330181657652894   F   F   F
  7.5229090450436793  3.9750999999999999 14.1375999747740249   F   F   F
 10.5320726630611521  3.9750999999999999 17.1467635927914976   T   T   T
  9.0274908540524166  1.9875499999999999 12.6330181657652876   F   F   F
 12.0366544720698876  1.9875499999999999 15.6421817837827586   F   F   F
  6.0183272360349438  0.0000000000000000 21.6605090198177059   T   T   T
  9.0274908540524166  0.0000000000000000 18.6513454018002314   T   T   T
  6.0183272360349438  0.0000000000000000 18.6513454018002314   T   T   T
  9.0274908540524148  0.0000000000000000 21.6605090198177059   T   T   T
 10.5320726630611521  5.9626500000000000 20.1559272108089651   T   T   T
 13.5412362810786231  5.9626500000000000 23.1650908288264397   T   T   T
 13.5412362810786249  5.9626500000000000 20.1559272108089651   T   T   T
 10.5320726630611521  5.9626500000000000 23.1650908288264397   T   T   T
  9.0274908540524166  3.9750999999999999 18.6513454018002349   T   T   T
 12.0366544720698876  3.9750999999999999 21.6605090198177024   T   T   T
  9.0274908540524166  3.9750999999999999 21.6605090198177024   T   T   T
 12.0366544720698876  3.9750999999999999 18.6513454018002349   T   T   T
 10.5320726630611503  1.9875499999999999 20.1559272108089687   T   T   T
  7.5229090450436793  1.9875499999999999 17.1467635927914941   F   F   F
  7.5229090450436793  1.9875499999999999 20.1559272108089687   T   T   T
 10.5320726630611503  1.9875499999999999 17.1467635927914941   F   F   F
  7.5229090450436793  0.0000000000000000 17.1467635927914976   T   T   T
 10.5320726630611503  0.0000000000000000 20.1559272108089651   T   T   T
  9.0274908540524166  5.9626500000000000 21.6605090198177059   T   T   T
 12.0366544720698876  5.9626500000000000 18.6513454018002314   T   T   T
  7.5229090450436793  3.9750999999999999 20.1559272108089687   T   T   T
 10.5320726630611521  3.9750999999999999 23.1650908288264432   T   T   T
  9.0274908540524166  1.9875499999999999 18.6513454018002278   T   T   T
 12.0366544720698876  1.9875499999999999 21.6605090198177024   T   T   T
