Mo Pd Mo C  Mo C  Mo C  Mo C 
 1.0000000000000000
    10.3900000000000006    0.0000000000000000   -0.0000000000000017
    -0.0000000000000009   14.8692958431050517   -3.6420429885187731
     0.0000000000000000    0.0000000000000000   30.1120307134425929
 Mo  Pd  Mo  C   Mo  C   Mo  C   Mo  C  
   6   1   9   8  16   8  16   8  16   8
Selective dynamics
Cartesian
  2.1663150000000000  1.3939964852910991 11.3657661206945395   F   F   F
  2.1663149999999995  5.1113204460673618 14.2824641802541308   T   T   T
  4.7638150000000010  4.1819894558732962 15.4668940687088750   T   T   T
  4.7638150000000001  0.4646654950970325 12.5501960091492855   F   F   F
  3.0286849999999990  4.1819894558732962 11.6396852620195919   F   F   F
  3.0286849999999998  0.4646654950970326 16.3774048158385668   T   T   T
  4.7638149999999992  2.3233274754851645 17.8357538456183597   T   T   T
  4.7638149999999984  6.0406514362614274 13.0980342917993848   F   F   F
  0.4311849999999998  3.2526584656792301 12.8241151504743343   F   F   F
  0.4311849999999995  6.9699824264554930 15.7408132100339273   T   T   T
  2.1663150000000000  3.2526584656792301 16.6513239571636191   T   T   T
  2.1663150000000000  6.9699824264554930 11.9136044033446407   F   F   F
  0.4311849999999997  5.1113204460673618 10.4552553735648477   F   F   F
  0.4311849999999999  1.3939964852910982 15.1929749273838244   T   T   T
  3.0286849999999994  6.0406514362614274 16.9252430984886679   T   T   T
  3.0286849999999998  2.3233274754851645 14.0085450389290784   T   T   T
  1.2987499999999998  3.2526584656792301 10.9105107471296936   F   F   F
  1.2987499999999996  6.9699824264554930 13.8272088066892831   T   T   T
  3.8962499999999998  4.1819894558732962 17.3804984720535138   T   T   T
  3.8962500000000002  0.4646654950970329 14.4638004124939261   T   T   T
  3.8962499999999993  4.1819894558732962 13.5532896653642325   T   T   T
  3.8962500000000002  0.4646654950970329 18.2910092191832057   T   T   T
  1.2987499999999996  6.9699824264554930 10.0000000000000000   F   F   F
  1.2987499999999998  3.2526584656792301 14.7377195538189767   T   T   T
  2.1663149999999995  8.8286444068436243  9.5447446264351523   F   F   F
  2.1663149999999991 12.5459683676198885 12.4614426859947436   F   F   F
  4.7638150000000001 11.6166373774258211 13.6458725744494878   T   T   T
  4.7638149999999992  7.8993134166495587 10.7291745148898983   F   F   F
  3.0286849999999985 11.6166373774258211  9.8186637677602047   F   F   F
  3.0286849999999994  7.8993134166495587 14.5563833215791796   T   T   T
  4.7638149999999984  9.7579753970376899 16.0147323513589726   T   T   T
  4.7638149999999975 13.4752993578139524 11.2770127975399976   F   F   F
  0.4311849999999993 10.6873063872317555 11.0030936562149471   F   F   F
  0.4311849999999991 14.4046303480080198 13.9197917157745401   T   T   T
  2.1663149999999995 10.6873063872317555 14.8303024629042319   T   T   T
  2.1663149999999995 14.4046303480080198 10.0925829090852535   F   F   F
  0.4311849999999993 12.5459683676198885  8.6342338793054605   F   F   F
  0.4311849999999995  8.8286444068436243 13.3719534331244372   T   T   T
  3.0286849999999990 13.4752993578139524 15.1042216042292807   T   T   T
  3.0286849999999994  9.7579753970376899 12.1875235446696912   F   F   F
  1.2987499999999994 10.6873063872317555  9.0894892528703064   F   F   F
  1.2987499999999992 14.4046303480080198 12.0061873124298959   F   F   F
  3.8962499999999993 11.6166373774258211 15.5594769777941266   T   T   T
  3.8962499999999998  7.8993134166495587 12.6427789182345389   F   F   F
  3.8962499999999989 11.6166373774258211 11.7322681711048453   F   F   F
  3.8962499999999998  7.8993134166495587 16.4699877249238185   T   T   T
  1.2987499999999992 14.4046303480080198  8.1789785057406128   F   F   F
  1.2987499999999994 10.6873063872317555 12.9166980595595895   F   F   F
  7.3613150000000003  1.3939964852910991 11.3657661206945395   F   F   F
  7.3613149999999994  5.1113204460673618 14.2824641802541308   T   T   T
  9.9588150000000013  4.1819894558732962 15.4668940687088750   T   T   T
  9.9588150000000013  0.4646654950970325 12.5501960091492855   F   F   F
  8.2236849999999997  4.1819894558732962 11.6396852620195919   F   F   F
  8.2236849999999997  0.4646654950970326 16.3774048158385668   T   T   T
  9.9588149999999995  2.3233274754851645 17.8357538456183597   T   T   T
  9.9588149999999978  6.0406514362614274 13.0980342917993848   F   F   F
  5.6261850000000004  3.2526584656792301 12.8241151504743343   F   F   F
  5.6261849999999995  6.9699824264554930 15.7408132100339273   T   T   T
  7.3613150000000003  3.2526584656792301 16.6513239571636191   T   T   T
  7.3613150000000003  6.9699824264554930 11.9136044033446407   F   F   F
  5.6261849999999995  5.1113204460673618 10.4552553735648477   F   F   F
  5.6261850000000004  1.3939964852910982 15.1929749273838244   T   T   T
  8.2236849999999997  6.0406514362614274 16.9252430984886679   T   T   T
  8.2236849999999997  2.3233274754851645 14.0085450389290784   T   T   T
  6.4937500000000004  3.2526584656792301 10.9105107471296936   F   F   F
  6.4937500000000004  6.9699824264554930 13.8272088066892831   T   T   T
  9.0912500000000005  4.1819894558732962 17.3804984720535138   T   T   T
  9.0912500000000005  0.4646654950970329 14.4638004124939261   T   T   T
  9.0912499999999987  4.1819894558732962 13.5532896653642325   T   T   T
  9.0912500000000005  0.4646654950970329 18.2910092191832057   T   T   T
  6.4937500000000004  6.9699824264554930 10.0000000000000000   F   F   F
  6.4937500000000004  3.2526584656792301 14.7377195538189767   T   T   T
  7.3613149999999994  8.8286444068436243  9.5447446264351523   F   F   F
  7.3613149999999994 12.5459683676198885 12.4614426859947436   F   F   F
  9.9588150000000013 11.6166373774258211 13.6458725744494878   T   T   T
  9.9588149999999995  7.8993134166495587 10.7291745148898983   F   F   F
  8.2236849999999979 11.6166373774258211  9.8186637677602047   F   F   F
  8.2236849999999997  7.8993134166495587 14.5563833215791796   T   T   T
  9.9588149999999978  9.7579753970376899 16.0147323513589726   T   T   T
  9.9588149999999978 13.4752993578139524 11.2770127975399976   F   F   F
  5.6261849999999995 10.6873063872317555 11.0030936562149471   F   F   F
  5.6261849999999987 14.4046303480080198 13.9197917157745401   T   T   T
  7.3613149999999994 10.6873063872317555 14.8303024629042319   T   T   T
  7.3613149999999994 14.4046303480080198 10.0925829090852535   F   F   F
  5.6261849999999995 12.5459683676198885  8.6342338793054605   F   F   F
  5.6261849999999995  8.8286444068436243 13.3719534331244372   T   T   T
  8.2236849999999997 13.4752993578139524 15.1042216042292807   T   T   T
  8.2236849999999997  9.7579753970376899 12.1875235446696912   F   F   F
  6.4937499999999995 10.6873063872317555  9.0894892528703064   F   F   F
  6.4937499999999986 14.4046303480080198 12.0061873124298959   F   F   F
  9.0912499999999987 11.6166373774258211 15.5594769777941266   T   T   T
  9.0912499999999987  7.8993134166495587 12.6427789182345389   F   F   F
  9.0912499999999987 11.6166373774258211 11.7322681711048453   F   F   F
  9.0912499999999987  7.8993134166495587 16.4699877249238185   T   T   T
  6.4937499999999986 14.4046303480080198  8.1789785057406128   F   F   F
  6.4937499999999995 10.6873063872317555 12.9166980595595895   F   F   F
