Mo S  Mo S  Mo S  Mo S  Mo S  Mo S  Mo S  Mo S  Mo S  Mo S  Mo S  Mo S  Mo S  Mo S  Mo S  Mo S  Mo S  Mo S  Mo S  Mo S  Mo S  Mo S  Mo S  Mo S  Mo S  Mo S  Mo S  Mo S  Mo S  Mo S  Mo S  Mo S  Mo S  Mo S  Mo S  Mo S  Mo S  Mo S  Mo S  Mo S  Mo S  Mo S  Mo S  Mo S  Mo S  Mo S  Mo S  Mo S  Mo S  Mo S  Mo S  Mo S  Mo S  Mo S  Mo S  Mo S  Mo S  Mo S  Mo S  Mo S  Mo S  Mo S  Mo S  Mo S 
 1.0000000000000000
    12.6400000000000006    0.0000000000000000    0.0000000000000000
    -6.3199999999999958   10.9465611038353074    0.0000000000000000
     0.0000000000000000    0.0000000000000000   66.2046100000000024
 Mo  S   Mo  S   Mo  S   Mo  S   Mo  S   Mo  S   Mo  S   Mo  S   Mo  S   Mo  S   Mo  S   Mo  S   Mo  S   Mo  S   Mo  S   Mo  S   Mo  S   Mo  S   Mo  S   Mo  S   Mo  S   Mo  S   Mo  S   Mo  S   Mo  S   Mo  S   Mo  S   Mo  S   Mo  S   Mo  S   Mo  S   Mo  S   Mo  S   Mo  S   Mo  S   Mo  S   Mo  S   Mo  S   Mo  S   Mo  S   Mo  S   Mo  S   Mo  S   Mo  S   Mo  S   Mo  S   Mo  S   Mo  S   Mo  S   Mo  S   Mo  S   Mo  S   Mo  S   Mo  S   Mo  S   Mo  S   Mo  S   Mo  S   Mo  S   Mo  S   Mo  S   Mo  S   Mo  S   Mo  S  
   2   4   2   4   2   4   2   4   2   4   2   4   2   4   2   4   2   4   2   4   2   4   2   4   2   4   2   4   2   4   2   4   2   4   2   4   2   4   2   4   2   4   2   4   2   4   2   4   2   4   2   4   2   4   2   4   2   4   2   4   2   4   2   4   2   4   2   4   2   4   2   4   2   4   2   4   2   4   2   4   2   4   2   4   2   4   2   4   2   4   2   4   2   4   2   4   2   4   2   4   2   4   2   4   2   4   2   4   2   4   2   4   2   4   2   4   2   4   2   4   2   4   2   4   2   4   2   4
Selective dynamics
Cartesian
 -0.0000000001579995  1.8244268507304391 11.5860550000000018   F   F   F
  1.5800000001580008  0.9122134252283884 17.7335550000000026   F   F   F
 -0.0000000001579992  1.8244268507304400 19.3196100000000044   F   F   F
  1.5800000001580006  0.9122134252283880 13.1721100000000018   F   F   F
  1.5800000001580004  0.9122134252283877 10.0000000000000018   F   F   F
 -0.0000000001579996  1.8244268507304404 16.1475000000000009   F   F   F
 -0.0000000001579989  1.8244268507304406 23.8810550000000035   F   F   F
  1.5800000001580017  0.9122134252283899 30.0285549999999972   F   F   F
 -0.0000000001579985  1.8244268507304415 31.6146100000000061   F   F   F
  1.5800000001580015  0.9122134252283893 25.4671100000000052   F   F   F
  1.5800000001580012  0.9122134252283891 22.2950000000000017   F   F   F
 -0.0000000001579987  1.8244268507304415 28.4425000000000026   F   F   F
 -0.0000000001579980  1.8244268507304420 36.1760550000000052   T   T   T
  1.5800000001580023  0.9122134252283910 42.3235550000000060   T   T   T
 -0.0000000001579976  1.8244268507304429 43.9096100000000078   T   T   T
  1.5800000001580021  0.9122134252283906 37.7621099999999998   T   T   T
  1.5800000001580015  0.9122134252283904 34.5900000000000034   T   T   T
 -0.0000000001579983  1.8244268507304429 40.7375000000000043   T   T   T
 -0.0000000001579973  1.8244268507304433 48.4710549999999998   T   T   T
  1.5800000001580032  0.9122134252283924 54.6185550000000006   T   T   T
 -0.0000000001579972  1.8244268507304440 56.2046100000000024   T   T   T
  1.5800000001580028  0.9122134252283920 50.0571100000000015   T   T   T
  1.5800000001580019  0.9122134252283918 46.8850000000000051   T   T   T
 -0.0000000001579975  1.8244268507304440 53.0324999999999989   T   T   T
 -1.5800000001579986  4.5610671266892657 11.5860550000000018   F   F   F
  0.0000000001580018  3.6488537011872153 17.7335550000000026   F   F   F
 -1.5800000001579981  4.5610671266892666 19.3196100000000044   F   F   F
  0.0000000001580016  3.6488537011872149 13.1721100000000018   F   F   F
  0.0000000001580014  3.6488537011872144 10.0000000000000018   F   F   F
 -1.5800000001579986  4.5610671266892675 16.1475000000000009   F   F   F
 -1.5800000001579979  4.5610671266892675 23.8810550000000035   F   F   F
  0.0000000001580027  3.6488537011872166 30.0285549999999972   F   F   F
 -1.5800000001579975  4.5610671266892684 31.6146100000000061   F   F   F
  0.0000000001580025  3.6488537011872162 25.4671100000000052   F   F   F
  0.0000000001580023  3.6488537011872157 22.2950000000000017   F   F   F
 -1.5800000001579977  4.5610671266892684 28.4425000000000026   F   F   F
 -1.5800000001579970  4.5610671266892684 36.1760550000000052   T   T   T
  0.0000000001580034  3.6488537011872180 42.3235550000000060   T   T   T
 -1.5800000001579966  4.5610671266892702 43.9096100000000078   T   T   T
  0.0000000001580032  3.6488537011872175 37.7621099999999998   T   T   T
  0.0000000001580025  3.6488537011872175 34.5900000000000034   T   T   T
 -1.5800000001579972  4.5610671266892702 40.7375000000000043   T   T   T
 -1.5800000001579964  4.5610671266892702 48.4710549999999998   T   T   T
  0.0000000001580043  3.6488537011872193 54.6185550000000006   T   T   T
 -1.5800000001579961  4.5610671266892711 56.2046100000000024   T   T   T
  0.0000000001580038  3.6488537011872189 50.0571100000000015   T   T   T
  0.0000000001580029  3.6488537011872184 46.8850000000000051   T   T   T
 -1.5800000001579964  4.5610671266892711 53.0324999999999989   T   T   T
 -3.1600000001579973  7.2977074026480926 11.5860550000000018   F   F   F
 -1.5799999998419971  6.3854939771460426 17.7335550000000026   F   F   F
 -3.1600000001579973  7.2977074026480935 19.3196100000000044   F   F   F
 -1.5799999998419973  6.3854939771460417 13.1721100000000018   F   F   F
 -1.5799999998419976  6.3854939771460417 10.0000000000000018   F   F   F
 -3.1600000001579973  7.2977074026480944 16.1475000000000009   F   F   F
 -3.1600000001579969  7.2977074026480944 23.8810550000000035   F   F   F
 -1.5799999998419962  6.3854939771460435 30.0285549999999972   F   F   F
 -3.1600000001579964  7.2977074026480953 31.6146100000000061   F   F   F
 -1.5799999998419965  6.3854939771460426 25.4671100000000052   F   F   F
 -1.5799999998419967  6.3854939771460426 22.2950000000000017   F   F   F
 -3.1600000001579964  7.2977074026480953 28.4425000000000026   F   F   F
 -3.1600000001579960  7.2977074026480953 36.1760550000000052   T   T   T
 -1.5799999998419956  6.3854939771460444 42.3235550000000060   T   T   T
 -3.1600000001579955  7.2977074026480970 43.9096100000000078   T   T   T
 -1.5799999998419958  6.3854939771460444 37.7621099999999998   T   T   T
 -1.5799999998419965  6.3854939771460444 34.5900000000000034   T   T   T
 -3.1600000001579964  7.2977074026480970 40.7375000000000043   T   T   T
 -3.1600000001579951  7.2977074026480970 48.4710549999999998   T   T   T
 -1.5799999998419947  6.3854939771460462 54.6185550000000006   T   T   T
 -3.1600000001579951  7.2977074026480979 56.2046100000000024   T   T   T
 -1.5799999998419951  6.3854939771460462 50.0571100000000015   T   T   T
 -1.5799999998419960  6.3854939771460453 46.8850000000000051   T   T   T
 -3.1600000001579955  7.2977074026480979 53.0324999999999989   T   T   T
 -4.7400000001579965 10.0343476786069203 11.5860550000000018   F   F   F
 -3.1599999998419959  9.1221342531048695 17.7335550000000026   F   F   F
 -4.7400000001579956 10.0343476786069203 19.3196100000000044   F   F   F
 -3.1599999998419959  9.1221342531048677 13.1721100000000018   F   F   F
 -3.1599999998419963  9.1221342531048677 10.0000000000000018   F   F   F
 -4.7400000001579965 10.0343476786069203 16.1475000000000009   F   F   F
 -4.7400000001579956 10.0343476786069203 23.8810550000000035   F   F   F
 -3.1599999998419950  9.1221342531048712 30.0285549999999972   F   F   F
 -4.7400000001579947 10.0343476786069221 31.6146100000000061   F   F   F
 -3.1599999998419950  9.1221342531048695 25.4671100000000052   F   F   F
 -3.1599999998419954  9.1221342531048695 22.2950000000000017   F   F   F
 -4.7400000001579956 10.0343476786069221 28.4425000000000026   F   F   F
 -4.7400000001579947 10.0343476786069221 36.1760550000000052   T   T   T
 -3.1599999998419941  9.1221342531048712 42.3235550000000060   T   T   T
 -4.7400000001579947 10.0343476786069239 43.9096100000000078   T   T   T
 -3.1599999998419945  9.1221342531048712 37.7621099999999998   T   T   T
 -3.1599999998419950  9.1221342531048712 34.5900000000000034   T   T   T
 -4.7400000001579947 10.0343476786069239 40.7375000000000043   T   T   T
 -4.7400000001579938 10.0343476786069239 48.4710549999999998   T   T   T
 -3.1599999998419932  9.1221342531048730 54.6185550000000006   T   T   T
 -4.7400000001579938 10.0343476786069239 56.2046100000000024   T   T   T
 -3.1599999998419941  9.1221342531048730 50.0571100000000015   T   T   T
 -3.1599999998419950  9.1221342531048730 46.8850000000000051   T   T   T
 -4.7400000001579938 10.0343476786069239 53.0324999999999989   T   T   T
  3.1599999998420008  1.8244268507304391 11.5860550000000018   F   F   F
  4.7400000001580009  0.9122134252283884 17.7335550000000026   F   F   F
  3.1599999998420008  1.8244268507304400 19.3196100000000044   F   F   F
  4.7400000001580009  0.9122134252283880 13.1721100000000018   F   F   F
  4.7400000001580000  0.9122134252283877 10.0000000000000018   F   F   F
  3.1599999998420008  1.8244268507304404 16.1475000000000009   F   F   F
  3.1599999998420012  1.8244268507304406 23.8810550000000035   F   F   F
  4.7400000001580018  0.9122134252283899 30.0285549999999972   F   F   F
  3.1599999998420016  1.8244268507304415 31.6146100000000061   F   F   F
  4.7400000001580018  0.9122134252283893 25.4671100000000052   F   F   F
  4.7400000001580018  0.9122134252283891 22.2950000000000017   F   F   F
  3.1599999998420016  1.8244268507304415 28.4425000000000026   F   F   F
  3.1599999998420021  1.8244268507304420 36.1760550000000052   T   T   T
  4.7400000001580027  0.9122134252283910 42.3235550000000060   T   T   T
  3.1599999998420025  1.8244268507304429 43.9096100000000078   T   T   T
  4.7400000001580018  0.9122134252283906 37.7621099999999998   T   T   T
  4.7400000001580018  0.9122134252283904 34.5900000000000034   T   T   T
  3.1599999998420016  1.8244268507304429 40.7375000000000043   T   T   T
  3.1599999998420030  1.8244268507304433 48.4710549999999998   T   T   T
  4.7400000001580036  0.9122134252283924 54.6185550000000006   T   T   T
  3.1599999998420030  1.8244268507304440 56.2046100000000024   T   T   T
  4.7400000001580027  0.9122134252283920 50.0571100000000015   T   T   T
  4.7400000001580018  0.9122134252283918 46.8850000000000051   T   T   T
  3.1599999998420025  1.8244268507304440 53.0324999999999989   T   T   T
  1.5799999998420016  4.5610671266892657 11.5860550000000018   F   F   F
  3.1600000001580018  3.6488537011872153 17.7335550000000026   F   F   F
  1.5799999998420020  4.5610671266892666 19.3196100000000044   F   F   F
  3.1600000001580018  3.6488537011872149 13.1721100000000018   F   F   F
  3.1600000001580018  3.6488537011872144 10.0000000000000018   F   F   F
  1.5799999998420016  4.5610671266892675 16.1475000000000009   F   F   F
  1.5799999998420022  4.5610671266892675 23.8810550000000035   F   F   F
  3.1600000001580026  3.6488537011872166 30.0285549999999972   F   F   F
  1.5799999998420027  4.5610671266892684 31.6146100000000061   F   F   F
  3.1600000001580026  3.6488537011872162 25.4671100000000052   F   F   F
  3.1600000001580026  3.6488537011872157 22.2950000000000017   F   F   F
  1.5799999998420025  4.5610671266892684 28.4425000000000026   F   F   F
  1.5799999998420031  4.5610671266892684 36.1760550000000052   T   T   T
  3.1600000001580035  3.6488537011872180 42.3235550000000060   T   T   T
  1.5799999998420036  4.5610671266892702 43.9096100000000078   T   T   T
  3.1600000001580035  3.6488537011872175 37.7621099999999998   T   T   T
  3.1600000001580026  3.6488537011872175 34.5900000000000034   T   T   T
  1.5799999998420029  4.5610671266892702 40.7375000000000043   T   T   T
  1.5799999998420038  4.5610671266892702 48.4710549999999998   T   T   T
  3.1600000001580044  3.6488537011872193 54.6185550000000006   T   T   T
  1.5799999998420040  4.5610671266892711 56.2046100000000024   T   T   T
  3.1600000001580040  3.6488537011872189 50.0571100000000015   T   T   T
  3.1600000001580031  3.6488537011872184 46.8850000000000051   T   T   T
  1.5799999998420038  4.5610671266892711 53.0324999999999989   T   T   T
 -0.0000000001579973  7.2977074026480926 11.5860550000000018   F   F   F
  1.5800000001580030  6.3854939771460426 17.7335550000000026   F   F   F
 -0.0000000001579970  7.2977074026480935 19.3196100000000044   F   F   F
  1.5800000001580028  6.3854939771460417 13.1721100000000018   F   F   F
  1.5800000001580026  6.3854939771460417 10.0000000000000018   F   F   F
 -0.0000000001579974  7.2977074026480944 16.1475000000000009   F   F   F
 -0.0000000001579966  7.2977074026480944 23.8810550000000035   F   F   F
  1.5800000001580039  6.3854939771460435 30.0285549999999972   F   F   F
 -0.0000000001579963  7.2977074026480953 31.6146100000000061   F   F   F
  1.5800000001580037  6.3854939771460426 25.4671100000000052   F   F   F
  1.5800000001580035  6.3854939771460426 22.2950000000000017   F   F   F
 -0.0000000001579965  7.2977074026480953 28.4425000000000026   F   F   F
 -0.0000000001579958  7.2977074026480953 36.1760550000000052   T   T   T
  1.5800000001580046  6.3854939771460444 42.3235550000000060   T   T   T
 -0.0000000001579954  7.2977074026480970 43.9096100000000078   T   T   T
  1.5800000001580043  6.3854939771460444 37.7621099999999998   T   T   T
  1.5800000001580037  6.3854939771460444 34.5900000000000034   T   T   T
 -0.0000000001579961  7.2977074026480970 40.7375000000000043   T   T   T
 -0.0000000001579951  7.2977074026480970 48.4710549999999998   T   T   T
  1.5800000001580055  6.3854939771460462 54.6185550000000006   T   T   T
 -0.0000000001579950  7.2977074026480979 56.2046100000000024   T   T   T
  1.5800000001580050  6.3854939771460462 50.0571100000000015   T   T   T
  1.5800000001580041  6.3854939771460453 46.8850000000000051   T   T   T
 -0.0000000001579952  7.2977074026480979 53.0324999999999989   T   T   T
 -1.5800000001579961 10.0343476786069203 11.5860550000000018   F   F   F
  0.0000000001580043  9.1221342531048695 17.7335550000000026   F   F   F
 -1.5800000001579957 10.0343476786069203 19.3196100000000044   F   F   F
  0.0000000001580041  9.1221342531048677 13.1721100000000018   F   F   F
  0.0000000001580038  9.1221342531048677 10.0000000000000018   F   F   F
 -1.5800000001579961 10.0343476786069203 16.1475000000000009   F   F   F
 -1.5800000001579955 10.0343476786069203 23.8810550000000035   F   F   F
  0.0000000001580052  9.1221342531048712 30.0285549999999972   F   F   F
 -1.5800000001579950 10.0343476786069221 31.6146100000000061   F   F   F
  0.0000000001580049  9.1221342531048695 25.4671100000000052   F   F   F
  0.0000000001580047  9.1221342531048695 22.2950000000000017   F   F   F
 -1.5800000001579952 10.0343476786069221 28.4425000000000026   F   F   F
 -1.5800000001579946 10.0343476786069221 36.1760550000000052   T   T   T
  0.0000000001580058  9.1221342531048712 42.3235550000000060   T   T   T
 -1.5800000001579941 10.0343476786069239 43.9096100000000078   T   T   T
  0.0000000001580056  9.1221342531048712 37.7621099999999998   T   T   T
  0.0000000001580049  9.1221342531048712 34.5900000000000034   T   T   T
 -1.5800000001579948 10.0343476786069239 40.7375000000000043   T   T   T
 -1.5800000001579939 10.0343476786069239 48.4710549999999998   T   T   T
  0.0000000001580067  9.1221342531048730 54.6185550000000006   T   T   T
 -1.5800000001579937 10.0343476786069239 56.2046100000000024   T   T   T
  0.0000000001580063  9.1221342531048730 50.0571100000000015   T   T   T
  0.0000000001580054  9.1221342531048730 46.8850000000000051   T   T   T
 -1.5800000001579939 10.0343476786069239 53.0324999999999989   T   T   T
  6.3199999998420004  1.8244268507304391 11.5860550000000018   F   F   F
  7.9000000001580011  0.9122134252283884 17.7335550000000026   F   F   F
  6.3199999998420013  1.8244268507304400 19.3196100000000044   F   F   F
  7.9000000001580011  0.9122134252283880 13.1721100000000018   F   F   F
  7.9000000001580002  0.9122134252283877 10.0000000000000018   F   F   F
  6.3199999998420004  1.8244268507304404 16.1475000000000009   F   F   F
  6.3199999998420013  1.8244268507304406 23.8810550000000035   F   F   F
  7.9000000001580020  0.9122134252283899 30.0285549999999972   F   F   F
  6.3199999998420022  1.8244268507304415 31.6146100000000061   F   F   F
  7.9000000001580020  0.9122134252283893 25.4671100000000052   F   F   F
  7.9000000001580020  0.9122134252283891 22.2950000000000017   F   F   F
  6.3199999998420013  1.8244268507304415 28.4425000000000026   F   F   F
  6.3199999998420022  1.8244268507304420 36.1760550000000052   T   T   T
  7.9000000001580029  0.9122134252283910 42.3235550000000060   T   T   T
  6.3199999998420022  1.8244268507304429 43.9096100000000078   T   T   T
  7.9000000001580020  0.9122134252283906 37.7621099999999998   T   T   T
  7.9000000001580020  0.9122134252283904 34.5900000000000034   T   T   T
  6.3199999998420022  1.8244268507304429 40.7375000000000043   T   T   T
  6.3199999998420031  1.8244268507304433 48.4710549999999998   T   T   T
  7.9000000001580037  0.9122134252283924 54.6185550000000006   T   T   T
  6.3199999998420031  1.8244268507304440 56.2046100000000024   T   T   T
  7.9000000001580029  0.9122134252283920 50.0571100000000015   T   T   T
  7.9000000001580020  0.9122134252283918 46.8850000000000051   T   T   T
  6.3199999998420031  1.8244268507304440 53.0324999999999989   T   T   T
  4.7399999998420013  4.5610671266892657 11.5860550000000018   F   F   F
  6.3200000001580019  3.6488537011872153 17.7335550000000026   F   F   F
  4.7399999998420022  4.5610671266892666 19.3196100000000044   F   F   F
  6.3200000001580019  3.6488537011872149 13.1721100000000018   F   F   F
  6.3200000001580019  3.6488537011872144 10.0000000000000018   F   F   F
  4.7399999998420013  4.5610671266892675 16.1475000000000009   F   F   F
  4.7399999998420022  4.5610671266892675 23.8810550000000035   F   F   F
  6.3200000001580028  3.6488537011872166 30.0285549999999972   F   F   F
  4.7399999998420030  4.5610671266892684 31.6146100000000061   F   F   F
  6.3200000001580028  3.6488537011872162 25.4671100000000052   F   F   F
  6.3200000001580019  3.6488537011872157 22.2950000000000017   F   F   F
  4.7399999998420022  4.5610671266892684 28.4425000000000026   F   F   F
  4.7399999998420030  4.5610671266892684 36.1760550000000052   T   T   T
  6.3200000001580037  3.6488537011872180 42.3235550000000060   T   T   T
  4.7399999998420030  4.5610671266892702 43.9096100000000078   T   T   T
  6.3200000001580037  3.6488537011872175 37.7621099999999998   T   T   T
  6.3200000001580028  3.6488537011872175 34.5900000000000034   T   T   T
  4.7399999998420030  4.5610671266892702 40.7375000000000043   T   T   T
  4.7399999998420039  4.5610671266892702 48.4710549999999998   T   T   T
  6.3200000001580046  3.6488537011872193 54.6185550000000006   T   T   T
  4.7399999998420039  4.5610671266892711 56.2046100000000024   T   T   T
  6.3200000001580037  3.6488537011872189 50.0571100000000015   T   T   T
  6.3200000001580028  3.6488537011872184 46.8850000000000051   T   T   T
  4.7399999998420039  4.5610671266892711 53.0324999999999989   T   T   T
  3.1599999998420030  7.2977074026480926 11.5860550000000018   F   F   F
  4.7400000001580036  6.3854939771460426 17.7335550000000026   F   F   F
  3.1599999998420030  7.2977074026480935 19.3196100000000044   F   F   F
  4.7400000001580027  6.3854939771460417 13.1721100000000018   F   F   F
  4.7400000001580027  6.3854939771460417 10.0000000000000018   F   F   F
  3.1599999998420030  7.2977074026480944 16.1475000000000009   F   F   F
  3.1599999998420034  7.2977074026480944 23.8810550000000035   F   F   F
  4.7400000001580036  6.3854939771460435 30.0285549999999972   F   F   F
  3.1599999998420039  7.2977074026480953 31.6146100000000061   F   F   F
  4.7400000001580036  6.3854939771460426 25.4671100000000052   F   F   F
  4.7400000001580036  6.3854939771460426 22.2950000000000017   F   F   F
  3.1599999998420039  7.2977074026480953 28.4425000000000026   F   F   F
  3.1599999998420043  7.2977074026480953 36.1760550000000052   T   T   T
  4.7400000001580045  6.3854939771460444 42.3235550000000060   T   T   T
  3.1599999998420047  7.2977074026480970 43.9096100000000078   T   T   T
  4.7400000001580045  6.3854939771460444 37.7621099999999998   T   T   T
  4.7400000001580036  6.3854939771460444 34.5900000000000034   T   T   T
  3.1599999998420039  7.2977074026480970 40.7375000000000043   T   T   T
  3.1599999998420052  7.2977074026480970 48.4710549999999998   T   T   T
  4.7400000001580054  6.3854939771460462 54.6185550000000006   T   T   T
  3.1599999998420052  7.2977074026480979 56.2046100000000024   T   T   T
  4.7400000001580054  6.3854939771460462 50.0571100000000015   T   T   T
  4.7400000001580045  6.3854939771460453 46.8850000000000051   T   T   T
  3.1599999998420047  7.2977074026480979 53.0324999999999989   T   T   T
  1.5799999998420040 10.0343476786069203 11.5860550000000018   F   F   F
  3.1600000001580044  9.1221342531048695 17.7335550000000026   F   F   F
  1.5799999998420045 10.0343476786069203 19.3196100000000044   F   F   F
  3.1600000001580044  9.1221342531048677 13.1721100000000018   F   F   F
  3.1600000001580040  9.1221342531048677 10.0000000000000018   F   F   F
  1.5799999998420040 10.0343476786069203 16.1475000000000009   F   F   F
  1.5799999998420047 10.0343476786069203 23.8810550000000035   F   F   F
  3.1600000001580053  9.1221342531048712 30.0285549999999972   F   F   F
  1.5799999998420051 10.0343476786069221 31.6146100000000061   F   F   F
  3.1600000001580053  9.1221342531048695 25.4671100000000052   F   F   F
  3.1600000001580049  9.1221342531048695 22.2950000000000017   F   F   F
  1.5799999998420049 10.0343476786069221 28.4425000000000026   F   F   F
  1.5799999998420056 10.0343476786069221 36.1760550000000052   T   T   T
  3.1600000001580062  9.1221342531048712 42.3235550000000060   T   T   T
  1.5799999998420060 10.0343476786069239 43.9096100000000078   T   T   T
  3.1600000001580058  9.1221342531048712 37.7621099999999998   T   T   T
  3.1600000001580053  9.1221342531048712 34.5900000000000034   T   T   T
  1.5799999998420053 10.0343476786069239 40.7375000000000043   T   T   T
  1.5799999998420062 10.0343476786069239 48.4710549999999998   T   T   T
  3.1600000001580071  9.1221342531048730 54.6185550000000006   T   T   T
  1.5799999998420065 10.0343476786069239 56.2046100000000024   T   T   T
  3.1600000001580062  9.1221342531048730 50.0571100000000015   T   T   T
  3.1600000001580053  9.1221342531048730 46.8850000000000051   T   T   T
  1.5799999998420062 10.0343476786069239 53.0324999999999989   T   T   T
  9.4799999998420006  1.8244268507304391 11.5860550000000018   F   F   F
 11.0600000001580021  0.9122134252283884 17.7335550000000026   F   F   F
  9.4799999998420006  1.8244268507304400 19.3196100000000044   F   F   F
 11.0600000001580003  0.9122134252283880 13.1721100000000018   F   F   F
 11.0600000001580003  0.9122134252283877 10.0000000000000018   F   F   F
  9.4799999998420006  1.8244268507304404 16.1475000000000009   F   F   F
  9.4799999998420024  1.8244268507304406 23.8810550000000035   F   F   F
 11.0600000001580021  0.9122134252283899 30.0285549999999972   F   F   F
  9.4799999998420024  1.8244268507304415 31.6146100000000061   F   F   F
 11.0600000001580021  0.9122134252283893 25.4671100000000052   F   F   F
 11.0600000001580021  0.9122134252283891 22.2950000000000017   F   F   F
  9.4799999998420024  1.8244268507304415 28.4425000000000026   F   F   F
  9.4799999998420024  1.8244268507304420 36.1760550000000052   T   T   T
 11.0600000001580021  0.9122134252283910 42.3235550000000060   T   T   T
  9.4799999998420024  1.8244268507304429 43.9096100000000078   T   T   T
 11.0600000001580021  0.9122134252283906 37.7621099999999998   T   T   T
 11.0600000001580021  0.9122134252283904 34.5900000000000034   T   T   T
  9.4799999998420024  1.8244268507304429 40.7375000000000043   T   T   T
  9.4799999998420024  1.8244268507304433 48.4710549999999998   T   T   T
 11.0600000001580039  0.9122134252283924 54.6185550000000006   T   T   T
  9.4799999998420024  1.8244268507304440 56.2046100000000024   T   T   T
 11.0600000001580039  0.9122134252283920 50.0571100000000015   T   T   T
 11.0600000001580021  0.9122134252283918 46.8850000000000051   T   T   T
  9.4799999998420024  1.8244268507304440 53.0324999999999989   T   T   T
  7.8999999998420014  4.5610671266892657 11.5860550000000018   F   F   F
  9.4800000001580020  3.6488537011872153 17.7335550000000026   F   F   F
  7.8999999998420023  4.5610671266892666 19.3196100000000044   F   F   F
  9.4800000001580020  3.6488537011872149 13.1721100000000018   F   F   F
  9.4800000001580020  3.6488537011872144 10.0000000000000018   F   F   F
  7.8999999998420014  4.5610671266892675 16.1475000000000009   F   F   F
  7.8999999998420023  4.5610671266892675 23.8810550000000035   F   F   F
  9.4800000001580038  3.6488537011872166 30.0285549999999972   F   F   F
  7.8999999998420032  4.5610671266892684 31.6146100000000061   F   F   F
  9.4800000001580020  3.6488537011872162 25.4671100000000052   F   F   F
  9.4800000001580020  3.6488537011872157 22.2950000000000017   F   F   F
  7.8999999998420023  4.5610671266892684 28.4425000000000026   F   F   F
  7.8999999998420032  4.5610671266892684 36.1760550000000052   T   T   T
  9.4800000001580038  3.6488537011872180 42.3235550000000060   T   T   T
  7.8999999998420032  4.5610671266892702 43.9096100000000078   T   T   T
  9.4800000001580038  3.6488537011872175 37.7621099999999998   T   T   T
  9.4800000001580020  3.6488537011872175 34.5900000000000034   T   T   T
  7.8999999998420032  4.5610671266892702 40.7375000000000043   T   T   T
  7.8999999998420041  4.5610671266892702 48.4710549999999998   T   T   T
  9.4800000001580038  3.6488537011872193 54.6185550000000006   T   T   T
  7.8999999998420041  4.5610671266892711 56.2046100000000024   T   T   T
  9.4800000001580038  3.6488537011872189 50.0571100000000015   T   T   T
  9.4800000001580038  3.6488537011872184 46.8850000000000051   T   T   T
  7.8999999998420041  4.5610671266892711 53.0324999999999989   T   T   T
  6.3199999998420022  7.2977074026480926 11.5860550000000018   F   F   F
  7.9000000001580029  6.3854939771460426 17.7335550000000026   F   F   F
  6.3199999998420031  7.2977074026480935 19.3196100000000044   F   F   F
  7.9000000001580029  6.3854939771460417 13.1721100000000018   F   F   F
  7.9000000001580020  6.3854939771460417 10.0000000000000018   F   F   F
  6.3199999998420022  7.2977074026480944 16.1475000000000009   F   F   F
  6.3199999998420031  7.2977074026480944 23.8810550000000035   F   F   F
  7.9000000001580037  6.3854939771460435 30.0285549999999972   F   F   F
  6.3199999998420040  7.2977074026480953 31.6146100000000061   F   F   F
  7.9000000001580037  6.3854939771460426 25.4671100000000052   F   F   F
  7.9000000001580037  6.3854939771460426 22.2950000000000017   F   F   F
  6.3199999998420031  7.2977074026480953 28.4425000000000026   F   F   F
  6.3199999998420040  7.2977074026480953 36.1760550000000052   T   T   T
  7.9000000001580046  6.3854939771460444 42.3235550000000060   T   T   T
  6.3199999998420040  7.2977074026480970 43.9096100000000078   T   T   T
  7.9000000001580037  6.3854939771460444 37.7621099999999998   T   T   T
  7.9000000001580037  6.3854939771460444 34.5900000000000034   T   T   T
  6.3199999998420040  7.2977074026480970 40.7375000000000043   T   T   T
  6.3199999998420049  7.2977074026480970 48.4710549999999998   T   T   T
  7.9000000001580055  6.3854939771460462 54.6185550000000006   T   T   T
  6.3199999998420049  7.2977074026480979 56.2046100000000024   T   T   T
  7.9000000001580046  6.3854939771460462 50.0571100000000015   T   T   T
  7.9000000001580037  6.3854939771460453 46.8850000000000051   T   T   T
  6.3199999998420049  7.2977074026480979 53.0324999999999989   T   T   T
  4.7399999998420039 10.0343476786069203 11.5860550000000018   F   F   F
  6.3200000001580046  9.1221342531048695 17.7335550000000026   F   F   F
  4.7399999998420048 10.0343476786069203 19.3196100000000044   F   F   F
  6.3200000001580046  9.1221342531048677 13.1721100000000018   F   F   F
  6.3200000001580037  9.1221342531048677 10.0000000000000018   F   F   F
  4.7399999998420039 10.0343476786069203 16.1475000000000009   F   F   F
  4.7399999998420048 10.0343476786069203 23.8810550000000035   F   F   F
  6.3200000001580054  9.1221342531048712 30.0285549999999972   F   F   F
  4.7399999998420057 10.0343476786069221 31.6146100000000061   F   F   F
  6.3200000001580054  9.1221342531048695 25.4671100000000052   F   F   F
  6.3200000001580054  9.1221342531048695 22.2950000000000017   F   F   F
  4.7399999998420048 10.0343476786069221 28.4425000000000026   F   F   F
  4.7399999998420057 10.0343476786069221 36.1760550000000052   T   T   T
  6.3200000001580063  9.1221342531048712 42.3235550000000060   T   T   T
  4.7399999998420057 10.0343476786069239 43.9096100000000078   T   T   T
  6.3200000001580054  9.1221342531048712 37.7621099999999998   T   T   T
  6.3200000001580054  9.1221342531048712 34.5900000000000034   T   T   T
  4.7399999998420057 10.0343476786069239 40.7375000000000043   T   T   T
  4.7399999998420066 10.0343476786069239 48.4710549999999998   T   T   T
  6.3200000001580072  9.1221342531048730 54.6185550000000006   T   T   T
  4.7399999998420066 10.0343476786069239 56.2046100000000024   T   T   T
  6.3200000001580063  9.1221342531048730 50.0571100000000015   T   T   T
  6.3200000001580054  9.1221342531048730 46.8850000000000051   T   T   T
  4.7399999998420066 10.0343476786069239 53.0324999999999989   T   T   T
