Ni Mo Ag Mo N 
 1.0000000000000000
     8.9742743439233017    0.0000000000000000    0.0000000000000005
     3.1064795805888408   34.0770096196157581    0.0000000000000021
     0.0000000000000000    0.0000000000000000   36.0361838731178921
 Ni  Mo  Ag  Mo  N  
 228  37   1 106  72
Selective dynamics
Cartesian
 11.3904251288257310 31.6856405235023715 10.0000000000000107   F   F   F
  9.6646031396097118 33.4791673455874061 10.0000000000000107   F   F   F
 10.7000963331393262 29.2942714273889848 10.0000000000000000   F   F   F
  8.9742743439233017 31.0877982494740266 10.0000000000000107   F   F   F
  7.2484523547072826 32.8813250715590613 10.0000000000000107   F   F   F
 10.0097675374529125 26.9029023312755982 10.0000000000000071   F   F   F
  8.2839455482368987 28.6964291533606399 10.0000000000000036   F   F   F
  6.5581235590208742 30.4899559754456781 10.0000000000000107   F   F   F
  4.8323015698048586 32.2834827975307164 10.0000000000000107   F   F   F
  9.3194387417665094 24.5115332351622115 10.0000000000000071   F   F   F
  7.5936167525504885 26.3050600572472462 10.0000000000000071   F   F   F
  5.8677947633344694 28.0985868793322879 10.0000000000000036   F   F   F
  4.1419727741184493 29.8921137014173297 10.0000000000000071   F   F   F
 10.3549319352961202 20.3266373169637831 10.0000000000000071   F   F   F
  8.6291099460800975 22.1201641390488248 10.0000000000000071   F   F   F
  6.9032879568640766 23.9136909611338595 10.0000000000000107   F   F   F
  5.1774659676480574 25.7072177832189013 10.0000000000000107   F   F   F
  3.4516439784320418 27.5007446053039430 10.0000000000000036   F   F   F
  9.6646031396097101 17.9352682208503964 10.0000000000000071   F   F   F
  7.9387811503936927 19.7287950429354382 10.0000000000000071   F   F   F
  6.2129591611776718 21.5223218650204764 10.0000000000000071   F   F   F
  4.4871371719616544 23.3158486871055111 10.0000000000000071   F   F   F
  2.7613151827456344 25.1093755091905528 10.0000000000000071   F   F   F
  8.9742743439233035 15.5438991247370151 10.0000000000000071   F   F   F
  7.2484523547072843 17.3374259468220551 10.0000000000000107   F   F   F
  5.5226303654912652 19.1309527689070933 10.0000000000000071   F   F   F
  3.7968083762752429 20.9244795909921280 10.0000000000000107   F   F   F
  2.0709863870592260 22.7180064130771733 10.0000000000000071   F   F   F
  8.2839455482368969 13.1525300286236249 10.0000000000000071   F   F   F
  6.5581235590208742 14.9460568507086666 10.0000000000000107   F   F   F
  4.8323015698048559 16.7395836727937102 10.0000000000000071   F   F   F
  3.1064795805888377 18.5331104948787413 10.0000000000000071   F   F   F
  9.3194387417665059  8.9676341104252018 10.0000000000000071   F   F   F
  7.5936167525504867 10.7611609325102418 10.0000000000000071   F   F   F
  5.8677947633344685 12.5546877545952800 10.0000000000000071   F   F   F
  4.1419727741184493 14.3482145766803217 10.0000000000000071   F   F   F
  2.4161507849024297 16.1417413987653617 10.0000000000000071   F   F   F
  8.6291099460800975  6.5762650143118142 10.0000000000000071   F   F   F
  6.9032879568640793  8.3697918363968515 10.0000000000000071   F   F   F
  5.1774659676480601 10.1633186584818933 10.0000000000000071   F   F   F
  3.4516439784320396 11.9568454805669333 10.0000000000000071   F   F   F
  1.7258219892160214 13.7503723026519715 10.0000000000000071   F   F   F
  7.9387811503936883  4.1848959181984267 10.0000000000000071   F   F   F
  6.2129591611776700  5.9784227402834658 10.0000000000000071   F   F   F
  4.4871371719616508  7.7719495623685075 10.0000000000000071   F   F   F
  2.7613151827456317  9.5654763844535449 10.0000000000000071   F   F   F
  1.0354931935296130 11.3590032065385866 10.0000000000000071   F   F   F
  7.2484523547072826  1.7935268220850402 10.0000000000000071   F   F   F
  5.5226303654912634  3.5870536441700787 10.0000000000000071   F   F   F
  3.7968083762752429  5.3805804662551191 10.0000000000000071   F   F   F
  2.0709863870592242  7.1741072883401609 10.0000000000000071   F   F   F
  4.8323015698048541  1.1956845480566931 10.0000000000000071   F   F   F
  3.1064795805888354  2.9892113701417329 10.0000000000000071   F   F   F
  1.3806575913728159  4.7827381922267733 10.0000000000000071   F   F   F
  2.4161507849024271  0.5978422740283467 10.0000000000000071   F   F   F
  0.6903287956864079  2.3913690961133867 10.0000000000000071   F   F   F
  0.0000000000000000  0.0000000000000005 10.0000000000000071   F   F   F
 10.0097675374529143 32.0842020395212728 12.0322729475474901   F   F   F
  8.2839455482368987 33.8777288616063146 12.0322729475474901   F   F   F
  9.3194387417665041 29.6928329434078790 12.0322729475474901   F   F   F
  7.5936167525504885 31.4863597654929244 12.0322729475474901   F   F   F
  5.8677947633344711 33.2798865875779697 12.0322729475474866   F   F   F
  8.6291099460801028 27.3014638472944995 12.0322729475474866   F   F   F
  6.9032879568640801 29.0949906693795342 12.0322729475474901   F   F   F
  5.1774659676480592 30.8885174914645653 12.0322729475474901   F   F   F
  3.4516439784320445 32.6820443135496248 12.0322729475474866   F   F   F
  7.9387811503936927 24.9100947511811128 12.0322729475474901   F   F   F
  6.2129591611776727 26.7036215732661475 12.0322729475474901   F   F   F
  4.4871371719616535 28.4971483953511893 12.0322729475474937   F   F   F
  2.7613151827456339 30.2906752174362239 12.0322729475474937   F   F   F
  8.9742743439233053 20.7251988329826844 12.0322729475474901   F   F   F
  7.2484523547072843 22.5187256550677226 12.0322729475474901   F   F   F
  5.5226303654912652 24.3122524771527608 12.0322729475474901   F   F   F
  3.7968083762752451 26.1057792992378026 12.0322729475474901   F   F   F
 11.0452607309825304 27.8993061213228408 12.0322729475474866   F   F   F
  8.2839455482368969 18.3338297368693013 12.0322729475474901   F   F   F
  6.5581235590208760 20.1273565589543360 12.0322729475474901   F   F   F
  4.8323015698048577 21.9208833810393742 12.0322729475474901   F   F   F
  3.1064795805888386 23.7144102031244124 12.0322729475474901   F   F   F
 10.3549319352961184 25.5079370252094577 12.0322729475474901   F   F   F
  7.5936167525504885 15.9424606407559128 12.0322729475474901   F   F   F
  5.8677947633344703 17.7359874628409493 12.0322729475474901   F   F   F
  4.1419727741184476 19.5295142849259875 12.0322729475474901   F   F   F
  2.4161507849024302 21.3230411070110257 12.0322729475474901   F   F   F
  9.6646031396097118 23.1165679290960711 12.0322729475474901   F   F   F
  6.9032879568640801 13.5510915446425262 12.0322729475474901   F   F   F
  5.1774659676480601 15.3446183667275644 12.0322729475474901   F   F   F
  3.4516439784320423 17.1381451888126008 12.0322729475474901   F   F   F
 10.7000963331393226 18.9316720108976391 12.0322729475474901   F   F   F
  7.9387811503936918  9.3661956264440960 12.0322729475474901   F   F   F
  6.2129591611776709 11.1597224485291378 12.0322729475474901   F   F   F
  4.4871371719616535 12.9532492706141795 12.0322729475474901   F   F   F
  2.7613151827456344 14.7467760926992195 12.0322729475474901   F   F   F
 10.0097675374529160 16.5403029147842595 12.0322729475474901   F   F   F
  7.2484523547072808  6.9748265303307120 12.0322729475474901   F   F   F
  5.5226303654912616  8.7683533524157493 12.0322729475474901   F   F   F
  3.7968083762752447 10.5618801745007911 12.0322729475474901   F   F   F
  2.0709863870592238 12.3554069965858293 12.0322729475474901   F   F   F
  9.3194387417665077 14.1489338186708711 12.0322729475474901   F   F   F
  6.5581235590208742  4.5834574342173235 12.0322729475474901   F   F   F
  4.8323015698048550  6.3769842563023635 12.0322729475474901   F   F   F
  3.1064795805888359  8.1705110783874044 12.0322729475474901   F   F   F
  1.3806575913728167  9.9640379004724444 12.0322729475474901   F   F   F
  8.6291099460800975 11.7575647225574844 12.0322729475474901   F   F   F
  5.8677947633344676  2.1920883381039382 12.0322729475474901   F   F   F
  4.1419727741184476  3.9856151601889764 12.0322729475474901   F   F   F
  2.4161507849024284  5.7791419822740178 12.0322729475474901   F   F   F
  0.6903287956864086  7.5726688043590569 12.0322729475474901   F   F   F
  3.4516439784320392  1.5942460640755909 12.0322729475474901   F   F   F
  1.7258219892160200  3.3877728861606307 12.0322729475474901   F   F   F
  8.9742743439233017  5.1812997082456702 12.0322729475474901   F   F   F
  1.0354931935296119  0.9964037900472447 12.0322729475474901   F   F   F
  8.2839455482368933  2.7899306121322840 12.0322729475474901   F   F   F
  7.5936167525504841  0.3985615160188979 12.0322729475474901   F   F   F
 10.3549319352961184 30.6892367334551253 14.0645458950949731   T   T   T
  8.6291099460801028 32.4827635555401670 14.0645458950949696   T   T   T
  9.6646031396097136 28.2978676373417457 14.0645458950949767   T   T   T
  7.9387811503936918 30.0913944594267804 14.0645458950949731   T   T   T
  6.2129591611776736 31.8849212815118221 14.0645458950949731   T   T   T
  8.9742743439233017 25.9064985412283590 14.0645458950949767   T   T   T
  7.2484523547072834 27.7000253633133902 14.0645458950949767   T   T   T
  5.5226303654912634 29.4935521853984319 14.0645458950949767   T   T   T
  3.7968083762752478 31.2870790074834773 14.0645458950949731   T   T   T
  8.2839455482368987 23.5151294451149724 14.0645458950949731   T   T   T
  6.5581235590208777 25.3086562672000071 14.0645458950949731   T   T   T
  4.8323015698048604 27.1021830892850488 14.0645458950949731   T   T   T
  3.1064795805888399 28.8957099113700835 14.0645458950949731   T   T   T
  9.3194387417665059 19.3302335269165404 14.0645458950949731   T   T   T
  7.5936167525504894 21.1237603490015822 14.0645458950949731   T   T   T
  5.8677947633344676 22.9172871710866204 14.0645458950949731   T   T   T
  4.1419727741184476 24.7108139931716622 14.0645458950949767   T   T   T
  2.4161507849024311 26.5043408152567039 14.0645458950949767   T   T   T
  8.6291099460801011 16.9388644308031573 14.0645458950949731   T   T   T
  6.9032879568640801 18.7323912528882026 14.0645458950949731   T   T   T
  5.1774659676480601 20.5259180749732337 14.0645458950949731   T   T   T
  3.4516439784320427 22.3194448970582755 14.0645458950949731   T   T   T
 10.7000963331393244 24.1129717191433137 14.0645458950949731   T   T   T
  7.9387811503936909 14.5474953346897689 14.0645458950949731   T   T   T
  6.2129591611776736 16.3410221567748124 14.0645458950949731   T   T   T
  4.4871371719616526 18.1345489788598471 14.0645458950949731   T   T   T
  2.7613151827456317 19.9280758009448817 14.0645458950949767   T   T   T
 10.0097675374529160 21.7216026230299306 14.0645458950949696   T   T   T
  7.2484523547072843 12.1561262385763840 14.0645458950949731   T   T   T
  5.5226303654912652 13.9496530606614240 14.0645458950949731   T   T   T
  3.7968083762752460 15.7431798827464622 14.0645458950949767   T   T   T
  2.0709863870592256 17.5367067048315057 14.0645458950949731   T   T   T
  8.2839455482368951  7.9712303203779546 14.0645458950949731   T   T   T
  6.5581235590208760  9.7647571424629955 14.0645458950949731   T   T   T
  4.8323015698048577 11.5582839645480373 14.0645458950949731   T   T   T
  3.1064795805888386 13.3518107866330773 14.0645458950949731   T   T   T
  1.3806575913728187 15.1453376087181173 14.0645458950949731   T   T   T
  7.5936167525504867  5.5798612242645689 14.0645458950949731   T   T   T
  5.8677947633344676  7.3733880463496098 14.0645458950949731   T   T   T
  4.1419727741184502  9.1669148684346524 14.0645458950949731   T   T   T
  2.4161507849024284 10.9604416905196906 14.0645458950949731   T   T   T
  9.6646031396097136 12.7539685126047306 14.0645458950949731   T   T   T
  6.9032879568640775  3.1884921281511818 14.0645458950949731   T   T   T
  5.1774659676480592  4.9820189502362240 14.0645458950949731   T   T   T
  3.4516439784320414  6.7755457723212631 14.0645458950949731   T   T   T
  1.7258219892160214  8.5690725944063040 14.0645458950949731   T   T   T
  8.9742743439233017 10.3625994164913457 14.0645458950949767   T   T   T
  6.2129591611776709  0.7971230320377971 14.0645458950949731   T   T   T
  4.4871371719616517  2.5906498541228373 14.0645458950949731   T   T   T
  2.7613151827456326  4.3841766762078782 14.0645458950949767   T   T   T
  1.0354931935296130  6.1777034982929173 14.0645458950949767   T   T   T
  3.7968083762752447  0.1992807580094505 14.0645458950949767   T   T   T
  2.0709863870592247  1.9928075800944915 14.0645458950949731   T   T   T
  0.3451643978432052  3.7863344021795302 14.0645458950949767   T   T   T
  4.4871371719616544 33.6784481035968639 14.0645458950949731   T   T   T
  8.6291099460800993  1.3949653060661436 14.0645458950949731   T   T   T
 11.0452607309825304 33.0806058295685190 14.0645458950949731   T   T   T
 11.3904251288257310 31.6856405235023715 16.0968188426424561   T   T   T
  9.6646031396097136 33.4791673455874133 16.0968188426424597   T   T   T
 10.7000963331393244 29.2942714273889919 16.0968188426424561   T   T   T
  8.9742743439233053 31.0877982494740266 16.0968188426424561   T   T   T
  7.2484523547072834 32.8813250715590684 16.0968188426424597   T   T   T
 10.0097675374529143 26.9029023312756017 16.0968188426424561   T   T   T
  8.2839455482368969 28.6964291533606399 16.0968188426424561   T   T   T
  6.5581235590208760 30.4899559754456781 16.0968188426424632   T   T   T
  4.8323015698048577 32.2834827975307164 16.0968188426424561   T   T   T
  9.3194387417665094 24.5115332351622115 16.0968188426424561   T   T   T
  7.5936167525504885 26.3050600572472497 16.0968188426424561   T   T   T
  5.8677947633344729 28.0985868793322879 16.0968188426424561   T   T   T
  4.1419727741184493 29.8921137014173333 16.0968188426424632   T   T   T
 10.3549319352961202 20.3266373169637831 16.0968188426424526   T   T   T
  8.6291099460801028 22.1201641390488284 16.0968188426424526   T   T   T
  6.9032879568640819 23.9136909611338666 16.0968188426424561   T   T   T
  5.1774659676480610 25.7072177832189013 16.0968188426424561   T   T   T
  3.4516439784320445 27.5007446053039502 16.0968188426424526   T   T   T
  9.6646031396097101 17.9352682208503964 16.0968188426424561   T   T   T
  7.9387811503936936 19.7287950429354417 16.0968188426424561   T   T   T
  6.2129591611776736 21.5223218650204799 16.0968188426424526   T   T   T
  4.4871371719616517 23.3158486871055146 16.0968188426424561   T   T   T
  2.7613151827456335 25.1093755091905564 16.0968188426424526   T   T   T
  8.9742743439233017 15.5438991247370115 16.0968188426424561   T   T   T
  7.2484523547072879 17.3374259468220586 16.0968188426424561   T   T   T
  5.5226303654912634 19.1309527689070897 16.0968188426424561   T   T   T
  3.7968083762752460 20.9244795909921351 16.0968188426424561   T   T   T
  2.0709863870592260 22.7180064130771733 16.0968188426424561   T   T   T
  8.2839455482368987 13.1525300286236266 16.0968188426424561   T   T   T
  6.5581235590208760 14.9460568507086666 16.0968188426424561   T   T   T
  4.8323015698048568 16.7395836727937102 16.0968188426424561   T   T   T
  3.1064795805888377 18.5331104948787413 16.0968188426424561   T   T   T
  9.3194387417665077  8.9676341104252018 16.0968188426424526   T   T   T
  7.5936167525504867 10.7611609325102418 16.0968188426424561   T   T   T
  5.8677947633344694 12.5546877545952835 16.0968188426424597   T   T   T
  4.1419727741184502 14.3482145766803217 16.0968188426424561   T   T   T
  2.4161507849024293 16.1417413987653617 16.0968188426424561   T   T   T
  8.6291099460800993  6.5762650143118142 16.0968188426424561   T   T   T
  6.9032879568640766  8.3697918363968515 16.0968188426424561   T   T   T
  5.1774659676480610 10.1633186584818969 16.0968188426424561   T   T   T
  3.4516439784320396 11.9568454805669333 16.0968188426424561   T   T   T
  1.7258219892160227 13.7503723026519733 16.0968188426424561   T   T   T
  7.9387811503936909  4.1848959181984284 16.0968188426424561   T   T   T
  6.2129591611776691  5.9784227402834702 16.0968188426424561   T   T   T
  4.4871371719616535  7.7719495623685075 16.0968188426424561   T   T   T
  2.7613151827456326  9.5654763844535502 16.0968188426424561   T   T   T
  1.0354931935296141 11.3590032065385866 16.0968188426424561   T   T   T
  7.2484523547072826  1.7935268220850407 16.0968188426424597   T   T   T
  5.5226303654912634  3.5870536441700813 16.0968188426424597   T   T   T
  3.7968083762752443  5.3805804662551209 16.0968188426424597   T   T   T
  2.0709863870592251  7.1741072883401609 16.0968188426424597   T   T   T
  4.8323015698048559  1.1956845480566947 16.0968188426424597   T   T   T
  3.1064795805888359  2.9892113701417351 16.0968188426424597   T   T   T
  1.3806575913728165  4.7827381922267751 16.0968188426424597   T   T   T
  2.4161507849024284  0.5978422740283488 16.0968188426424597   T   T   T
  0.6903287956864083  2.3913690961133875 16.0968188426424597   T   T   T
  0.0000000000000002  0.0000000000000021 16.0968188426424597   T   T   T
 10.0828734685476693 34.3892632470362258 23.9254479557155051   T   T   T
  8.0694144811289803 28.7097616437669316 23.9254479557155086   T   T   T
  6.0559554937102877 23.0302600404976410 23.9254479557155051   T   T   T
  4.0424965062915978 17.3507584372283503 23.9254479557155015   T   T   T
  2.0290375188729071 11.6712568339590579 23.9254479557155015   T   T   T
  0.0155785314542159  5.9917552306897655 23.9254479557155015   T   T   T
  9.0761439748383239 31.5495124454015787 23.9254479557155086   T   T   T
  7.0626849874196331 25.8700108421322916 23.9254479557155051   T   T   T
  5.0492260000009423 20.1905092388630010 23.9254479557155015   T   T   T
  3.0357670125822525 14.5110076355937032 23.9254479557155015   T   T   T
  1.0223080251635615  8.8315060323244126 23.9254479557155015   T   T   T
 11.0896029622570111 37.2290140486708694 23.9254479557155051   T   T   T
  2.8467258262232935 32.1704871487935975 24.6290265948496341   T   T   T
  9.8075411827279027 26.4909855455243033 24.6290265948496341   T   T   T
  7.7940821953092119 20.8114839422550162 24.6290265948496305   T   T   T
  5.7806232078905211 15.1319823389857255 24.6290265948496305   T   T   T
  3.7671642204718312  9.4524807357164331 24.6290265948496305   T   T   T
  4.8601848136419807 37.8499887520628917 24.6290265948496341   T   T   T
 10.8142706764372498 29.3307363471589468 24.6290265948496341   T   T   T
  8.8008116890185590 23.6512347438896633 24.6290265948496341   T   T   T
  6.7873527015998656 17.9717331406203726 24.6290265948496305   T   T   T
  4.7738937141811757 12.2922315373510767 24.6290265948496305   T   T   T
  2.7604347267624858  6.6127299340817878 24.6290265948496305   T   T   T
  3.8534553199326362 35.0102379504282482 24.6290265948496341   T   T   T
  4.5848525278222168 29.9517110505509727 25.3326052339837702   T   T   T
  2.5713935404035251 24.2722094472816821 25.3326052339837666   T   T   T
  9.5322088969081342 18.5927078440123914 25.3326052339837631   T   T   T
  7.5187499094894470 12.9132062407430990 25.3326052339837631   T   T   T
  5.5052909220707553  7.2337046374738065 25.3326052339837631   T   T   T
  6.5983115152409049 35.6312126538202634 25.3326052339837666   T   T   T
  3.5781230341128722 27.1119602489163292 25.3326052339837631   T   T   T
  1.5646640466941808 21.4324586456470385 25.3326052339837631   T   T   T
  8.5254794031987906 15.7529570423777425 25.3326052339837631   T   T   T
  6.5120204157800998 10.0734554391084519 25.3326052339837631   T   T   T
  4.4985614283614099  4.3939538358391630 25.3326052339837631   T   T   T
  5.5915820215315595 32.7914618521856269 25.3326052339837666   T   T   T
  6.3229792294211400 27.7329349523083444 26.0361838731178956   T   T   T
  4.3095202420024510 22.0534333490390573 26.0361838731178921   T   T   T
  2.2960612545837575 16.3739317457697631 26.0361838731178921   T   T   T
  9.2568766110883693 10.6944301425004760 26.0361838731178921   T   T   T
  7.2434176236696777  5.0149285392311818 26.0361838731178921   T   T   T
  8.3364382168398325 33.4124365555776492 26.0361838731178956   T   T   T
  5.3162497357117946 24.8931841506736973 26.0361838731178921   T   T   T
  3.3027907482931038 19.2136825474044137 26.0361838731178885   T   T   T
  1.2893317608744130 13.5341809441351231 26.0361838731178921   T   T   T
  8.2501471173790240  7.8546793408658271 26.0361838731178921   T   T   T
  9.3431677105491779 36.2521873572122928 26.0361838731178956   T   T   T
  7.3297087231304836 30.5726857539429986 26.0361838731178956   T   T   T
 10.0911820186565837 37.5848660367374308 21.1111333991789820   T   T   T
  8.0777230312378947 31.9053644334681437 21.1111333991789891   T   T   T
  6.0642640438192021 26.2258628301988495 21.1111333991789891   T   T   T
  4.0508050564005131 20.5463612269295552 21.1111333991789856   T   T   T
  2.0373460689818219 14.8668596236602628 21.1111333991789856   T   T   T
  0.0238870815631311  9.1873580203909722 21.1111333991789785   T   T   T
  9.0844525249472401 34.7451152351027872 21.1111333991789927   T   T   T
  7.0709935375285484 29.0656136318334966 21.1111333991789891   T   T   T
  5.0575345501098568 23.3861120285642059 21.1111333991789785   T   T   T
  3.0440755626911673 17.7066104252949117 21.1111333991789785   T   T   T
  1.0306165752724765 12.0271088220256193 21.1111333991789785   T   T   T
 11.0979115123659273 40.4246168383720814 21.1111333991789820   T   T   T
  2.8550343763322084 35.3660899384948095 21.8147120383131181   T   T   T
  9.8158497328368171 29.6865883352255153 21.8147120383131146   T   T   T
  7.8023907454181272 24.0070867319562282 21.8147120383131146   T   T   T
  5.7889317579994364 18.3275851286869376 21.8147120383131110   T   T   T
  3.7754727705807460 12.6480835254176398 21.8147120383131110   T   T   T
  4.8684933637508969 41.0455915417641037 21.8147120383131146   T   T   T
 10.8225792265461624 32.5263391368601589 21.8147120383131181   T   T   T
  8.8091202391274734 26.8468375335908682 21.8147120383131181   T   T   T
  6.7956612517087809 21.1673359303215847 21.8147120383131110   T   T   T
  4.7822022642900910 15.4878343270522851 21.8147120383131110   T   T   T
  2.7687432768714011  9.8083327237829980 21.8147120383131110   T   T   T
  3.8617638700415511 38.2058407401294531 21.8147120383131181   T   T   T
  4.5931610779311320 33.1473138402521812 22.5182906774472507   T   T   T
  2.5797020905124404 27.4678122369828905 22.5182906774472436   T   T   T
  9.5405174470170504 21.7883106337135999 22.5182906774472471   T   T   T
  7.5270584595983596 16.1088090304443057 22.5182906774472400   T   T   T
  5.5135994721796715 10.4293074271750168 22.5182906774472400   T   T   T
  6.6066200653498202 38.8268154435214754 22.5182906774472436   T   T   T
  3.5864315842217867 30.3075630386175376 22.5182906774472436   T   T   T
  1.5729725968030968 24.6280614353482470 22.5182906774472400   T   T   T
  8.5337879533077050 18.9485598320789528 22.5182906774472400   T   T   T
  6.5203289658890160 13.2690582288096586 22.5182906774472400   T   T   T
  4.5068699784703243  7.5895566255403706 22.5182906774472400   T   T   T
  5.5998905716404739 35.9870646418868247 22.5182906774472436   T   T   T
  6.3312877795300544 30.9285377420095564 23.2218693165813654   T   T   T
  4.3178287921113663 25.2490361387402658 23.2218693165813725   T   T   T
  2.3043698046926724 19.5695345354709680 23.2218693165813725   T   T   T
  9.2651851611972855 13.8900329322016809 23.2218693165813725   T   T   T
  7.2517261737785930  8.2105313289323920 23.2218693165813725   T   T   T
  8.3447467669487470 36.6080393452788613 23.2218693165813761   T   T   T
  5.3245582858207090 28.0887869403749058 23.2218693165813761   T   T   T
  3.3110992984020191 22.4092853371056222 23.2218693165813725   T   T   T
  1.2976403109833283 16.7297837338363315 23.2218693165813725   T   T   T
  8.2584556674879401 11.0502821305670391 23.2218693165813725   T   T   T
  9.3514762606580923 39.4477901469135048 23.2218693165813690   T   T   T
  7.3380172732393998 33.7682885436442106 23.2218693165813761   T   T   T
 10.0994905687654981 40.7804688264386428 18.2968188426424625   T   T   T
  8.0860315813468091 35.1009672231693486 18.2968188426424661   T   T   T
  6.0725725939281183 29.4214656199000579 18.2968188426424696   T   T   T
  4.0591136065094275 23.7419640166307602 18.2968188426424661   T   T   T
  2.0456546190907372 18.0624624133614766 18.2968188426424589   T   T   T
  0.0321956316720462 12.3829608100921824 18.2968188426424589   T   T   T
  9.0927610750561563 37.9407180248039921 18.2968188426424696   T   T   T
  7.0793020876374646 32.2612164215347050 18.2968188426424661   T   T   T
  5.0658431002187729 26.5817148182654108 18.2968188426424661   T   T   T
  3.0523841128000826 20.9022132149961166 18.2968188426424661   T   T   T
  1.0389251253813916 15.2227116117268295 18.2968188426424589   T   T   T
 11.1062200624748417 43.6202196280732863 18.2968188426424625   T   T   T
  2.8633429264411241 38.5616927281960145 19.0003974817765915   T   T   T
  9.8241582829457315 32.8821911249267274 19.0003974817765915   T   T   T
  7.8106992955270425 27.2026895216574403 19.0003974817765879   T   T   T
  5.7972403081083517 21.5231879183881425 19.0003974817765879   T   T   T
  3.7837813206896613 15.8436863151188536 19.0003974817765879   T   T   T
  4.8768019138598113 44.2411943314653158 19.0003974817765915   T   T   T
 10.8308877766550786 35.7219419265613709 19.0003974817765915   T   T   T
  8.8174287892363878 30.0424403232920803 19.0003974817765915   T   T   T
  6.8039698018176953 24.3629387200227931 19.0003974817765915   T   T   T
  4.7905108143990063 18.6834371167534954 19.0003974817765879   T   T   T
  2.7770518269803164 13.0039355134842101 19.0003974817765844   T   T   T
  3.8700724201504659 41.4014435298306651 19.0003974817765915   T   T   T
  4.6014696280400464 36.3429166299533861 19.7039761209107276   T   T   T
  2.5880106406213557 30.6634150266841026 19.7039761209107240   T   T   T
  9.5488259971259666 24.9839134234148048 19.7039761209107276   T   T   T
  7.5353670097072767 19.3044118201455177 19.7039761209107205   T   T   T
  5.5219080222885859 13.6249102168762271 19.7039761209107205   T   T   T
  6.6149286154587355 42.0224182332226803 19.7039761209107276   T   T   T
  3.5947401343307019 33.5031658283187426 19.7039761209107240   T   T   T
  1.5812811469120112 27.8236642250494555 19.7039761209107240   T   T   T
  8.5420965034166212 22.1441626217801613 19.7039761209107240   T   T   T
  6.5286375159979304 16.4646610185108706 19.7039761209107205   T   T   T
  4.5151785285792396 10.7851594152415799 19.7039761209107205   T   T   T
  5.6081991217493901 39.1826674315880368 19.7039761209107240   T   T   T
  6.3395963296389706 34.1241405317107649 20.4075547600448530   T   T   T
  4.3261373422202816 28.4446389284414742 20.4075547600448530   T   T   T
  2.3126783548015881 22.7651373251721800 20.4075547600448495   T   T   T
  9.2734937113061999 17.0856357219028894 20.4075547600448495   T   T   T
  7.2600347238875091 11.4061341186336005 20.4075547600448495   T   T   T
  8.3530553170576614 39.8036421349800662 20.4075547600448530   T   T   T
  5.3328668359296252 31.2843897300761178 20.4075547600448530   T   T   T
  3.3194078485109344 25.6048881268068307 20.4075547600448495   T   T   T
  1.3059488610922432 19.9253865235375365 20.4075547600448495   T   T   T
  8.2667642175968545 14.2458849202682476 20.4075547600448495   T   T   T
  9.3597848107670085 42.6433929366147026 20.4075547600448566   T   T   T
  7.3463258233483151 36.9638913333454155 20.4075547600448495   T   T   T
 10.0787191934932103 32.7914618521856198 25.3326052339837666   T   T   T
  8.0652602060745231 27.1119602489163292 25.3326052339837666   T   T   T
  6.0518012186558297 21.4324586456470385 25.3326052339837631   T   T   T
  4.0383422312371398 15.7529570423777443 25.3326052339837631   T   T   T
  2.0248832438184490 10.0734554391084536 25.3326052339837631   T   T   T
  0.0114242563997584  4.3939538358391612 25.3326052339837631   T   T   T
 10.8101164013827908 27.7329349523083479 26.0361838731178956   T   T   T
  8.7966574139641001 22.0534333490390573 26.0361838731178921   T   T   T
  6.7831984265454075 16.3739317457697631 26.0361838731178921   T   T   T
  4.7697394391267185 10.6944301425004742 26.0361838731178921   T   T   T
  2.7562804517080286  5.0149285392311826 26.0361838731178921   T   T   T
  3.8493010448781781 33.4124365555776421 26.0361838731178921   T   T   T
  3.5822773091673290 28.7097616437669316 23.9254479557155086   T   T   T
  1.5688183217486384 23.0302600404976410 23.9254479557155051   T   T   T
  8.5296336782532478 17.3507584372283503 23.9254479557154980   T   T   T
  6.5161746908345579 11.6712568339590561 23.9254479557155015   T   T   T
  4.5027157034158671  5.9917552306897655 23.9254479557155015   T   T   T
  5.5957362965860167 34.3892632470362258 23.9254479557155015   T   T   T
  6.3271335044755972 29.3307363471589504 24.6290265948496341   T   T   T
  4.3136745170569082 23.6512347438896597 24.6290265948496305   T   T   T
  2.3002155296382147 17.9717331406203655 24.6290265948496305   T   T   T
  9.2610308861428265 12.2922315373510767 24.6290265948496305   T   T   T
  7.2475718987241349  6.6127299340817878 24.6290265948496305   T   T   T
  8.3405924918942898 35.0102379504282553 24.6290265948496341   T   T   T
 10.0870277436021265 35.9870646418868247 22.5182906774472436   T   T   T
  8.0735687561834375 30.3075630386175376 22.5182906774472471   T   T   T
  6.0601097687647458 24.6280614353482470 22.5182906774472400   T   T   T
  4.0466507813460550 18.9485598320789563 22.5182906774472400   T   T   T
  2.0331917939273643 13.2690582288096603 22.5182906774472400   T   T   T
  0.0197328065086735  7.5895566255403706 22.5182906774472400   T   T   T
 10.8184249514917052 30.9285377420095600 23.2218693165813690   T   T   T
  8.8049659640730162 25.2490361387402658 23.2218693165813761   T   T   T
  6.7915069766543246 19.5695345354709787 23.2218693165813725   T   T   T
  4.7780479892356329 13.8900329322016791 23.2218693165813725   T   T   T
  2.7645890018169439  8.2105313289323938 23.2218693165813725   T   T   T
  3.8576095949870934 36.6080393452788542 23.2218693165813761   T   T   T
  3.5905858592762447 31.9053644334681401 21.1111333991789891   T   T   T
  1.5771268718575537 26.2258628301988495 21.1111333991789856   T   T   T
  8.5379422283621622 20.5463612269295552 21.1111333991789856   T   T   T
  6.5244832409434732 14.8668596236602610 21.1111333991789856   T   T   T
  4.5110242535247824  9.1873580203909739 21.1111333991789785   T   T   T
  5.6040448466949320 37.5848660367374308 21.1111333991789820   T   T   T
  6.3354420545845134 32.5263391368601660 21.8147120383131146   T   T   T
  4.3219830671658244 26.8468375335908682 21.8147120383131146   T   T   T
  2.3085240797471305 21.1673359303215740 21.8147120383131110   T   T   T
  9.2693394362517427 15.4878343270522851 21.8147120383131110   T   T   T
  7.2558804488330502  9.8083327237829945 21.8147120383131110   T   T   T
  8.3489010420032042 38.2058407401294602 21.8147120383131181   T   T   T
 10.0953362937110409 39.1826674315880439 19.7039761209107205   T   T   T
  8.0818773062923519 33.5031658283187426 19.7039761209107276   T   T   T
  6.0684183188736602 27.8236642250494590 19.7039761209107240   T   T   T
  4.0549593314549703 22.1441626217801613 19.7039761209107205   T   T   T
  2.0415003440362796 16.4646610185108742 19.7039761209107205   T   T   T
  0.0280413566175887 10.7851594152415782 19.7039761209107205   T   T   T
 10.8267335016006214 34.1241405317107649 20.4075547600448530   T   T   T
  8.8132745141819306 28.4446389284414742 20.4075547600448530   T   T   T
  6.7998155267632381 22.7651373251721836 20.4075547600448495   T   T   T
  4.7863565393445482 17.0856357219028894 20.4075547600448495   T   T   T
  2.7728975519258587 11.4061341186336023 20.4075547600448495   T   T   T
  3.8659181450960078 39.8036421349800591 20.4075547600448530   T   T   T
  3.5988944093851596 35.1009672231693486 18.2968188426424625   T   T   T
  1.5854354219664695 29.4214656199000615 18.2968188426424589   T   T   T
  8.5462507784710766 23.7419640166307602 18.2968188426424696   T   T   T
  6.5327917910523885 18.0624624133614695 18.2968188426424625   T   T   T
  4.5193328036336977 12.3829608100921824 18.2968188426424589   T   T   T
  5.6123533968038473 40.7804688264386357 18.2968188426424625   T   T   T
  6.3437506046934278 35.7219419265613780 19.0003974817765844   T   T   T
  4.3302916172747397 30.0424403232920803 19.0003974817765915   T   T   T
  2.3168326298560453 24.3629387200227825 19.0003974817765879   T   T   T
  9.2776479863606589 18.6834371167534954 19.0003974817765879   T   T   T
  7.2641889989419663 13.0039355134842101 19.0003974817765844   T   T   T
  8.3572095921121203 41.4014435298306722 19.0003974817765915   T   T   T
