Mo Se Mo Se Mo Se Mo Se Mo Se Mo Se Mo Se Mo Se Mo Se Mo Se Mo Se Mo Se Mo Se Mo Se Mo Se Mo Se Mo Se Mo Se Mo Se Mo Se Mo Se Mo Se Mo Se Mo Se
 1.0000000000000000
    34.0895000000000010    0.0000000000000000    0.0000000000000000
     0.0000000000000000   11.3934302121880755    0.0000000000000000
     0.0000000000000000    0.0000000000000000   19.3399999999999999
 Mo  Se  Mo  Se  Mo  Se  Mo  Se  Mo  Se  Mo  Se  Mo  Se  Mo  Se  Mo  Se  Mo  Se  Mo  Se  Mo  Se  Mo  Se  Mo  Se  Mo  Se  Mo  Se  Mo  Se  Mo  Se  Mo  Se  Mo  Se  Mo  Se  Mo  Se  Mo  Se  Mo  Se 
   1   1   1   1   1   1   1   1   1   2   1   2   1   2   1   2   1   2   1   2   1   2   1   2   1   2   1   2   1   2   1   2   1   2   1   2   1   2   1   2   1   1   1   1   1   1   1   1
Selective dynamics
Cartesian
  8.0000000000000000  0.0000000000000000  9.6699999999999999   T   T   T
  9.6445000000000007  0.9494525176823397 11.3399999999999999   T   T   T
  9.6445000000000007  2.8483575530470184  9.6699999999999999   T   T   T
  8.0000000000000000  3.7978100707293589 11.3399999999999999   T   T   T
  8.0000000000000000  5.6967151060940378  9.6699999999999999   T   T   T
  9.6445000000000007  6.6461676237763774 11.3399999999999999   T   T   T
  9.6445000000000007  8.5450726591410557  9.6699999999999999   T   T   T
  8.0000000000000000  9.4945251768233963 11.3399999999999999   T   T   T
 11.2889999999999997  0.0000000000000000  9.6699999999999999   T   T   T
 12.9335000000000004  0.9494525176823397 11.3399999999999999   T   T   T
 12.9335000000000004  0.9494525176823397  8.0000000000000000   F   F   F
 12.9335000000000004  2.8483575530470184  9.6699999999999999   T   T   T
 11.2889999999999997  3.7978100707293589 11.3399999999999999   T   T   T
 11.2889999999999997  3.7978100707293589  8.0000000000000000   F   F   F
 11.2889999999999997  5.6967151060940378  9.6699999999999999   T   T   T
 12.9335000000000004  6.6461676237763774 11.3399999999999999   T   T   T
 12.9335000000000004  6.6461676237763774  8.0000000000000000   F   F   F
 12.9335000000000004  8.5450726591410557  9.6699999999999999   T   T   T
 11.2889999999999997  9.4945251768233963 11.3399999999999999   T   T   T
 11.2889999999999997  9.4945251768233963  8.0000000000000000   F   F   F
 14.5779999999999994  0.0000000000000000  9.6699999999999999   T   T   T
 16.2225000000000001  0.9494525176823397 11.3399999999999999   T   T   T
 16.2225000000000001  0.9494525176823397  8.0000000000000000   F   F   F
 16.2225000000000001  2.8483575530470184  9.6699999999999999   T   T   T
 14.5779999999999994  3.7978100707293589 11.3399999999999999   T   T   T
 14.5779999999999994  3.7978100707293589  8.0000000000000000   F   F   F
 14.5779999999999994  5.6967151060940378  9.6699999999999999   T   T   T
 16.2225000000000001  6.6461676237763774 11.3399999999999999   T   T   T
 16.2225000000000001  6.6461676237763774  8.0000000000000000   F   F   F
 16.2225000000000001  8.5450726591410557  9.6699999999999999   T   T   T
 14.5779999999999994  9.4945251768233963 11.3399999999999999   T   T   T
 14.5779999999999994  9.4945251768233963  8.0000000000000000   F   F   F
 17.8670000000000009  0.0000000000000000  9.6699999999999999   T   T   T
 19.5115000000000016  0.9494525176823397 11.3399999999999999   T   T   T
 19.5115000000000016  0.9494525176823397  8.0000000000000000   F   F   F
 19.5115000000000016  2.8483575530470184  9.6699999999999999   T   T   T
 17.8670000000000009  3.7978100707293589 11.3399999999999999   T   T   T
 17.8670000000000009  3.7978100707293589  8.0000000000000000   F   F   F
 17.8670000000000009  5.6967151060940378  9.6699999999999999   T   T   T
 19.5115000000000016  6.6461676237763774 11.3399999999999999   T   T   T
 19.5115000000000016  6.6461676237763774  8.0000000000000000   F   F   F
 19.5115000000000016  8.5450726591410557  9.6699999999999999   T   T   T
 17.8670000000000009  9.4945251768233963 11.3399999999999999   T   T   T
 17.8670000000000009  9.4945251768233963  8.0000000000000000   F   F   F
 21.1559999999999988  0.0000000000000000  9.6699999999999999   T   T   T
 22.8004999999999995  0.9494525176823397 11.3399999999999999   T   T   T
 22.8004999999999995  0.9494525176823397  8.0000000000000000   F   F   F
 22.8004999999999995  2.8483575530470184  9.6699999999999999   T   T   T
 21.1559999999999988  3.7978100707293589 11.3399999999999999   T   T   T
 21.1559999999999988  3.7978100707293589  8.0000000000000000   F   F   F
 21.1559999999999988  5.6967151060940378  9.6699999999999999   T   T   T
 22.8004999999999995  6.6461676237763774 11.3399999999999999   T   T   T
 22.8004999999999995  6.6461676237763774  8.0000000000000000   F   F   F
 22.8004999999999995  8.5450726591410557  9.6699999999999999   T   T   T
 21.1559999999999988  9.4945251768233963 11.3399999999999999   T   T   T
 21.1559999999999988  9.4945251768233963  8.0000000000000000   F   F   F
 24.4450000000000003  0.0000000000000000  9.6699999999999999   T   T   T
 26.0895000000000010  0.9494525176823397 11.3399999999999999   T   T   T
 26.0895000000000010  2.8483575530470184  9.6699999999999999   T   T   T
 24.4450000000000003  3.7978100707293589 11.3399999999999999   T   T   T
 24.4450000000000003  5.6967151060940378  9.6699999999999999   T   T   T
 26.0895000000000010  6.6461676237763774 11.3399999999999999   T   T   T
 26.0895000000000010  8.5450726591410557  9.6699999999999999   T   T   T
 24.4450000000000003  9.4945251768233963 11.3399999999999999   T   T   T
