Ni Mo N  Pt
 1.0000000000000000
     8.9742743439233017    0.0000000000000000    0.0000000000000005
     2.7613151827456401   22.0905214619650501    0.0000000000000014
     0.0000000000000000    0.0000000000000000   35.8200000000000003
 Ni  Mo  N   Pt 
 256  96  48   4
Selective dynamics
Cartesian
  6.9032879568640801  1.3806575913728159 18.1664000000000030   T   T   T
  8.2839455482368987  3.4516439784320392 18.1664000000000030   T   T   T
  3.4516439784320401  0.6903287956864079 18.1664000000000030   T   T   T
  4.8323015698048559  2.7613151827456313 18.1664000000000030   T   T   T
  6.2129591611776718  4.8323015698048550 18.1664000000000030   T   T   T
  7.5936167525504894  6.9032879568640784 18.1664000000000030   T   T   T
  8.9742743439233053  8.9742743439233017 18.1664000000000030   T   T   T
  0.0000000000000000  0.0000000000000000 18.1664000000000030   T   T   T
  1.3806575913728167  2.0709863870592233 18.1664000000000030   T   T   T
  2.7613151827456335  4.1419727741184467 18.1664000000000030   T   T   T
  4.1419727741184493  6.2129591611776700 18.1664000000000030   T   T   T
  5.5226303654912670  8.2839455482368933 18.1664000000000030   T   T   T
  6.9032879568640837 10.3549319352961167 18.1664000000000030   T   T   T
  8.2839455482368987 12.4259183223553400 18.1664000000000030   T   T   T
  9.6646031396097154 14.4969047094145633 18.1664000000000030   T   T   T
  0.6903287956864100  5.5226303654912625 18.1664000000000030   T   T   T
  2.0709863870592269  7.5936167525504876 18.1664000000000030   T   T   T
  3.4516439784320427  9.6646031396097101 18.1664000000000030   T   T   T
  4.8323015698048604 11.7355895266689334 18.1664000000000030   T   T   T
  6.2129591611776798 13.8065759137281567 18.1664000000000030   T   T   T
  7.5936167525504921 15.8775623007873818 18.1664000000000030   T   T   T
  8.9742743439233088 17.9485486878466034 18.1664000000000030   T   T   T
 10.3549319352961273 20.0195350749058250 18.1664000000000030   T   T   T
  1.3806575913728201 11.0452607309825250 18.1664000000000030   T   T   T
  2.7613151827456370 13.1162471180417484 18.1664000000000030   T   T   T
  4.1419727741184538 15.1872335051009753 18.1664000000000030   T   T   T
  5.5226303654912741 17.2582198921601950 18.1664000000000030   T   T   T
  6.9032879568640855 19.3292062792194201 18.1664000000000030   T   T   T
  8.2839455482369058 21.4001926662786417 18.1664000000000030   T   T   T
  2.0709863870592318 16.5678910964737867 18.1664000000000030   T   T   T
  3.4516439784320476 18.6388774835330118 18.1664000000000030   T   T   T
  4.8323015698048648 20.7098638705922333 18.1664000000000030   T   T   T
  6.5581235590208777  3.1064795805888350 19.9264000000000010   T   T   T
  7.9387811503936927  5.1774659676480583 19.9264000000000010   T   T   T
  3.1064795805888372  2.4161507849024275 19.9264000000000010   T   T   T
  4.4871371719616526  4.4871371719616508 19.9264000000000010   T   T   T
  5.8677947633344694  6.5581235590208742 19.9264000000000010   T   T   T
  7.2484523547072879  8.6291099460800957 19.9264000000000010   T   T   T
  8.6291099460801028 10.7000963331393208 19.9264000000000010   T   T   T
  8.6291099460800993  1.7258219892160198 19.9264000000000010   T   T   T
  1.0354931935296134  3.7968083762752438 19.9264000000000010   T   T   T
  2.4161507849024302  5.8677947633344667 19.9264000000000010   T   T   T
  3.7968083762752460  7.9387811503936909 19.9264000000000010   T   T   T
  5.1774659676480637 10.0097675374529125 19.9264000000000010   T   T   T
  6.5581235590208795 12.0807539245121376 19.9264000000000010   T   T   T
  7.9387811503936963 14.1517403115713609 19.9264000000000010   T   T   T
  9.3194387417665112 16.2227266986305878 19.9264000000000010   T   T   T
  9.3194387417665094  7.2484523547072817 19.9264000000000010   T   T   T
  1.7258219892160238  9.3194387417665059 19.9264000000000010   T   T   T
  3.1064795805888394 11.3904251288257292 19.9264000000000010   T   T   T
  4.4871371719616580 13.4614115158849525 19.9264000000000010   T   T   T
  5.8677947633344756 15.5323979029441777 19.9264000000000010   T   T   T
  7.2484523547072905 17.6033842900034010 19.9264000000000010   T   T   T
  8.6291099460801064 19.6743706770626225 19.9264000000000010   T   T   T
 10.0097675374529231 21.7453570641218477 19.9264000000000046   T   T   T
 10.0097675374529196 12.7710827201985442 19.9264000000000010   T   T   T
  2.4161507849024346 14.8420691072577711 19.9264000000000010   T   T   T
  3.7968083762752505 16.9130554943169926 19.9264000000000010   T   T   T
  5.1774659676480672 18.9840418813762142 19.9264000000000010   T   T   T
  6.5581235590208848 21.0550282684354393 19.9264000000000010   T   T   T
  5.1774659676480592  1.0354931935296117 19.9264000000000010   T   T   T
 10.7000963331393280 18.2937130856898058 19.9264000000000010   T   T   T
  3.1064795805888448 20.3646994727490345 19.9264000000000010   T   T   T
  1.7258219892160205  0.3451643978432039 19.9264000000000010   T   T   T
  6.9032879568640801  1.3806575913728159 14.6463999999999945   T   T   T
  8.2839455482368987  3.4516439784320392 14.6463999999999945   T   T   T
  3.4516439784320401  0.6903287956864079 14.6463999999999945   T   T   T
  4.8323015698048559  2.7613151827456313 14.6463999999999945   T   T   T
  6.2129591611776718  4.8323015698048550 14.6463999999999945   T   T   T
  7.5936167525504894  6.9032879568640784 14.6463999999999945   T   T   T
  8.9742743439233053  8.9742743439233017 14.6463999999999963   T   T   T
  0.0000000000000000  0.0000000000000000 14.6463999999999945   T   T   T
  1.3806575913728167  2.0709863870592233 14.6463999999999945   T   T   T
  2.7613151827456335  4.1419727741184467 14.6463999999999945   T   T   T
  4.1419727741184493  6.2129591611776700 14.6463999999999945   T   T   T
  5.5226303654912670  8.2839455482368933 14.6463999999999945   T   T   T
  6.9032879568640837 10.3549319352961167 14.6463999999999963   T   T   T
  8.2839455482368987 12.4259183223553400 14.6463999999999963   T   T   T
  9.6646031396097154 14.4969047094145633 14.6463999999999963   T   T   T
  0.6903287956864100  5.5226303654912625 14.6463999999999945   T   T   T
  2.0709863870592269  7.5936167525504876 14.6463999999999945   T   T   T
  3.4516439784320427  9.6646031396097101 14.6463999999999945   T   T   T
  4.8323015698048604 11.7355895266689334 14.6463999999999963   T   T   T
  6.2129591611776798 13.8065759137281567 14.6463999999999963   T   T   T
  7.5936167525504921 15.8775623007873818 14.6463999999999963   T   T   T
  8.9742743439233088 17.9485486878466034 14.6463999999999963   T   T   T
 10.3549319352961273 20.0195350749058250 14.6463999999999963   T   T   T
  1.3806575913728201 11.0452607309825250 14.6463999999999945   T   T   T
  2.7613151827456370 13.1162471180417484 14.6463999999999945   T   T   T
  4.1419727741184538 15.1872335051009753 14.6463999999999963   T   T   T
  5.5226303654912741 17.2582198921601950 14.6463999999999963   T   T   T
  6.9032879568640855 19.3292062792194201 14.6463999999999963   T   T   T
  8.2839455482369058 21.4001926662786417 14.6463999999999963   T   T   T
  2.0709863870592318 16.5678910964737867 14.6463999999999963   T   T   T
  3.4516439784320476 18.6388774835330118 14.6463999999999963   T   T   T
  4.8323015698048648 20.7098638705922333 14.6463999999999963   T   T   T
  6.5581235590208777  3.1064795805888350 16.4064000000000014   T   T   T
  7.9387811503936927  5.1774659676480583 16.4064000000000014   T   T   T
  3.1064795805888372  2.4161507849024275 16.4064000000000014   T   T   T
  4.4871371719616526  4.4871371719616508 16.4064000000000014   T   T   T
  5.8677947633344694  6.5581235590208742 16.4064000000000014   T   T   T
  7.2484523547072879  8.6291099460800957 16.4064000000000014   T   T   T
  8.6291099460801028 10.7000963331393208 16.4064000000000014   T   T   T
  8.6291099460800993  1.7258219892160198 16.4064000000000014   T   T   T
  1.0354931935296134  3.7968083762752438 16.4064000000000014   T   T   T
  2.4161507849024302  5.8677947633344667 16.4064000000000014   T   T   T
  3.7968083762752460  7.9387811503936909 16.4064000000000014   T   T   T
  5.1774659676480637 10.0097675374529125 16.4064000000000014   T   T   T
  6.5581235590208795 12.0807539245121376 16.4064000000000014   T   T   T
  7.9387811503936963 14.1517403115713609 16.4064000000000014   T   T   T
  9.3194387417665112 16.2227266986305878 16.4064000000000014   T   T   T
  9.3194387417665094  7.2484523547072817 16.4064000000000014   T   T   T
  1.7258219892160238  9.3194387417665059 16.4064000000000014   T   T   T
  3.1064795805888394 11.3904251288257292 16.4064000000000014   T   T   T
  4.4871371719616580 13.4614115158849525 16.4064000000000014   T   T   T
  5.8677947633344756 15.5323979029441777 16.4064000000000014   T   T   T
  7.2484523547072905 17.6033842900034010 16.4064000000000014   T   T   T
  8.6291099460801064 19.6743706770626225 16.4064000000000014   T   T   T
 10.0097675374529231 21.7453570641218477 16.4064000000000050   T   T   T
 10.0097675374529196 12.7710827201985442 16.4064000000000014   T   T   T
  2.4161507849024346 14.8420691072577711 16.4064000000000014   T   T   T
  3.7968083762752505 16.9130554943169926 16.4064000000000014   T   T   T
  5.1774659676480672 18.9840418813762142 16.4064000000000014   T   T   T
  6.5581235590208848 21.0550282684354393 16.4064000000000014   T   T   T
  5.1774659676480592  1.0354931935296117 16.4064000000000014   T   T   T
 10.7000963331393280 18.2937130856898058 16.4064000000000014   T   T   T
  3.1064795805888448 20.3646994727490345 16.4064000000000014   T   T   T
  1.7258219892160205  0.3451643978432039 16.4064000000000014   T   T   T
  6.9032879568640801  1.3806575913728159 11.1263999999999967   F   F   F
  8.2839455482368987  3.4516439784320392 11.1263999999999967   F   F   F
  3.4516439784320401  0.6903287956864079 11.1263999999999967   F   F   F
  4.8323015698048559  2.7613151827456313 11.1263999999999967   F   F   F
  6.2129591611776718  4.8323015698048550 11.1263999999999967   F   F   F
  7.5936167525504894  6.9032879568640784 11.1263999999999967   F   F   F
  8.9742743439233053  8.9742743439233017 11.1263999999999985   F   F   F
  0.0000000000000000  0.0000000000000000 11.1263999999999967   F   F   F
  1.3806575913728167  2.0709863870592233 11.1263999999999967   F   F   F
  2.7613151827456335  4.1419727741184467 11.1263999999999967   F   F   F
  4.1419727741184493  6.2129591611776700 11.1263999999999967   F   F   F
  5.5226303654912670  8.2839455482368933 11.1263999999999967   F   F   F
  6.9032879568640837 10.3549319352961167 11.1263999999999985   F   F   F
  8.2839455482368987 12.4259183223553400 11.1263999999999985   F   F   F
  9.6646031396097154 14.4969047094145633 11.1263999999999985   F   F   F
  0.6903287956864100  5.5226303654912625 11.1263999999999967   F   F   F
  2.0709863870592269  7.5936167525504876 11.1263999999999967   F   F   F
  3.4516439784320427  9.6646031396097101 11.1263999999999967   F   F   F
  4.8323015698048604 11.7355895266689334 11.1263999999999985   F   F   F
  6.2129591611776798 13.8065759137281567 11.1263999999999985   F   F   F
  7.5936167525504921 15.8775623007873818 11.1263999999999985   F   F   F
  8.9742743439233088 17.9485486878466034 11.1263999999999985   F   F   F
 10.3549319352961273 20.0195350749058250 11.1263999999999985   F   F   F
  1.3806575913728201 11.0452607309825250 11.1263999999999967   F   F   F
  2.7613151827456370 13.1162471180417484 11.1263999999999967   F   F   F
  4.1419727741184538 15.1872335051009753 11.1263999999999985   F   F   F
  5.5226303654912741 17.2582198921601950 11.1263999999999985   F   F   F
  6.9032879568640855 19.3292062792194201 11.1263999999999985   F   F   F
  8.2839455482369058 21.4001926662786417 11.1263999999999985   F   F   F
  2.0709863870592318 16.5678910964737867 11.1263999999999985   F   F   F
  3.4516439784320476 18.6388774835330118 11.1263999999999985   F   F   F
  4.8323015698048648 20.7098638705922333 11.1263999999999985   F   F   F
  6.5581235590208777  3.1064795805888350 12.8864000000000001   F   F   F
  7.9387811503936927  5.1774659676480583 12.8864000000000001   F   F   F
  3.1064795805888372  2.4161507849024275 12.8864000000000001   F   F   F
  4.4871371719616526  4.4871371719616508 12.8864000000000001   F   F   F
  5.8677947633344694  6.5581235590208742 12.8864000000000001   F   F   F
  7.2484523547072879  8.6291099460800957 12.8864000000000019   F   F   F
  8.6291099460801028 10.7000963331393208 12.8864000000000019   F   F   F
  8.6291099460800993  1.7258219892160198 12.8864000000000001   F   F   F
  1.0354931935296134  3.7968083762752438 12.8864000000000001   F   F   F
  2.4161507849024302  5.8677947633344667 12.8864000000000001   F   F   F
  3.7968083762752460  7.9387811503936909 12.8864000000000001   F   F   F
  5.1774659676480637 10.0097675374529125 12.8864000000000001   F   F   F
  6.5581235590208795 12.0807539245121376 12.8864000000000019   F   F   F
  7.9387811503936963 14.1517403115713609 12.8864000000000019   F   F   F
  9.3194387417665112 16.2227266986305878 12.8864000000000019   F   F   F
  9.3194387417665094  7.2484523547072817 12.8864000000000019   F   F   F
  1.7258219892160238  9.3194387417665059 12.8864000000000001   F   F   F
  3.1064795805888394 11.3904251288257292 12.8864000000000001   F   F   F
  4.4871371719616580 13.4614115158849525 12.8864000000000019   F   F   F
  5.8677947633344756 15.5323979029441777 12.8864000000000019   F   F   F
  7.2484523547072905 17.6033842900034010 12.8864000000000019   F   F   F
  8.6291099460801064 19.6743706770626225 12.8864000000000019   F   F   F
 10.0097675374529231 21.7453570641218477 12.8864000000000019   F   F   F
 10.0097675374529196 12.7710827201985442 12.8864000000000019   F   F   F
  2.4161507849024346 14.8420691072577711 12.8864000000000019   F   F   F
  3.7968083762752505 16.9130554943169926 12.8864000000000019   F   F   F
  5.1774659676480672 18.9840418813762142 12.8864000000000019   F   F   F
  6.5581235590208848 21.0550282684354393 12.8864000000000019   F   F   F
  5.1774659676480592  1.0354931935296117 12.8864000000000001   F   F   F
 10.7000963331393280 18.2937130856898058 12.8864000000000019   F   F   F
  3.1064795805888448 20.3646994727490345 12.8864000000000019   F   F   F
  1.7258219892160205  0.3451643978432039 12.8864000000000001   F   F   F
  6.9032879568640801  1.3806575913728159  7.6064000000000007   F   F   F
  8.2839455482368987  3.4516439784320392  7.6064000000000007   F   F   F
  3.4516439784320401  0.6903287956864079  7.6063999999999998   F   F   F
  4.8323015698048559  2.7613151827456313  7.6064000000000007   F   F   F
  6.2129591611776718  4.8323015698048550  7.6064000000000007   F   F   F
  7.5936167525504894  6.9032879568640784  7.6064000000000007   F   F   F
  8.9742743439233053  8.9742743439233017  7.6064000000000007   F   F   F
  0.0000000000000000  0.0000000000000000  7.6063999999999998   F   F   F
  1.3806575913728167  2.0709863870592233  7.6063999999999998   F   F   F
  2.7613151827456335  4.1419727741184467  7.6063999999999998   F   F   F
  4.1419727741184493  6.2129591611776700  7.6064000000000007   F   F   F
  5.5226303654912670  8.2839455482368933  7.6064000000000007   F   F   F
  6.9032879568640837 10.3549319352961167  7.6064000000000007   F   F   F
  8.2839455482368987 12.4259183223553400  7.6064000000000007   F   F   F
  9.6646031396097154 14.4969047094145633  7.6064000000000016   F   F   F
  0.6903287956864100  5.5226303654912625  7.6063999999999998   F   F   F
  2.0709863870592269  7.5936167525504876  7.6064000000000007   F   F   F
  3.4516439784320427  9.6646031396097101  7.6064000000000007   F   F   F
  4.8323015698048604 11.7355895266689334  7.6064000000000007   F   F   F
  6.2129591611776798 13.8065759137281567  7.6064000000000007   F   F   F
  7.5936167525504921 15.8775623007873818  7.6064000000000007   F   F   F
  8.9742743439233088 17.9485486878466034  7.6064000000000016   F   F   F
 10.3549319352961273 20.0195350749058250  7.6064000000000016   F   F   F
  1.3806575913728201 11.0452607309825250  7.6064000000000007   F   F   F
  2.7613151827456370 13.1162471180417484  7.6064000000000007   F   F   F
  4.1419727741184538 15.1872335051009753  7.6064000000000007   F   F   F
  5.5226303654912741 17.2582198921601950  7.6064000000000007   F   F   F
  6.9032879568640855 19.3292062792194201  7.6064000000000016   F   F   F
  8.2839455482369058 21.4001926662786417  7.6064000000000016   F   F   F
  2.0709863870592318 16.5678910964737867  7.6064000000000007   F   F   F
  3.4516439784320476 18.6388774835330118  7.6064000000000007   F   F   F
  4.8323015698048648 20.7098638705922333  7.6064000000000016   F   F   F
  6.5581235590208777  3.1064795805888350  9.3663999999999970   F   F   F
  7.9387811503936927  5.1774659676480583  9.3663999999999970   F   F   F
  3.1064795805888372  2.4161507849024275  9.3663999999999970   F   F   F
  4.4871371719616526  4.4871371719616508  9.3663999999999970   F   F   F
  5.8677947633344694  6.5581235590208742  9.3663999999999970   F   F   F
  7.2484523547072879  8.6291099460800957  9.3663999999999987   F   F   F
  8.6291099460801028 10.7000963331393208  9.3663999999999987   F   F   F
  8.6291099460800993  1.7258219892160198  9.3663999999999970   F   F   F
  1.0354931935296134  3.7968083762752438  9.3663999999999970   F   F   F
  2.4161507849024302  5.8677947633344667  9.3663999999999970   F   F   F
  3.7968083762752460  7.9387811503936909  9.3663999999999970   F   F   F
  5.1774659676480637 10.0097675374529125  9.3663999999999970   F   F   F
  6.5581235590208795 12.0807539245121376  9.3663999999999987   F   F   F
  7.9387811503936963 14.1517403115713609  9.3663999999999987   F   F   F
  9.3194387417665112 16.2227266986305878  9.3663999999999987   F   F   F
  9.3194387417665094  7.2484523547072817  9.3663999999999987   F   F   F
  1.7258219892160238  9.3194387417665059  9.3663999999999970   F   F   F
  3.1064795805888394 11.3904251288257292  9.3663999999999970   F   F   F
  4.4871371719616580 13.4614115158849525  9.3663999999999987   F   F   F
  5.8677947633344756 15.5323979029441777  9.3663999999999987   F   F   F
  7.2484523547072905 17.6033842900034010  9.3663999999999987   F   F   F
  8.6291099460801064 19.6743706770626225  9.3663999999999987   F   F   F
 10.0097675374529231 21.7453570641218477  9.3663999999999987   F   F   F
 10.0097675374529196 12.7710827201985442  9.3663999999999987   F   F   F
  2.4161507849024346 14.8420691072577711  9.3663999999999987   F   F   F
  3.7968083762752505 16.9130554943169926  9.3663999999999987   F   F   F
  5.1774659676480672 18.9840418813762142  9.3663999999999987   F   F   F
  6.5581235590208848 21.0550282684354393  9.3663999999999987   F   F   F
  5.1774659676480592  1.0354931935296117  9.3663999999999970   F   F   F
 10.7000963331393280 18.2937130856898058  9.3663999999999987   F   F   F
  3.1064795805888448 20.3646994727490345  9.3663999999999987   F   F   F
  1.7258219892160205  0.3451643978432039  9.3663999999999970   F   F   F
  0.0000000000000000  0.0000000000000000 26.3263999999999960   T   T   T
  1.9559315877781569  3.6817535769941734 26.3263999999999960   T   T   T
  3.9118631755563138  7.3635071539883468 26.3263999999999960   T   T   T
  5.8677947633344694 11.0452607309825197 26.3263999999999960   T   T   T
  7.8237263511126276 14.7270143079766935 26.3263999999999960   T   T   T
  9.7796579388907858 18.4087678849708674 26.3263999999999960   T   T   T
  0.9779657938890784  1.8408767884970867 28.4264000000000010   T   T   T
  2.9338973816672347  5.5226303654912599 28.4264000000000010   T   T   T
  4.8898289694453920  9.2043839424854337 28.4264000000000010   T   T   T
  6.8457605572235476 12.8861375194796057 28.4264000000000010   T   T   T
  8.8016921450017058 16.5678910964737831 28.4264000000000010   T   T   T
 10.7576237327798623 20.2496446734679552 28.4264000000000010   T   T   T
  4.5159008717819251 21.1700830677165008 28.4264000000000010   T   T   T
  3.7105172768144428  2.7613151827456295 28.4264000000000010   T   T   T
  5.6664488645926001  6.4430687597398029 28.4264000000000010   T   T   T
  7.6223804523707557 10.1248223367339740 28.4264000000000010   T   T   T
  9.5783120401489139 13.8065759137281461 28.4264000000000010   T   T   T
  2.5599692840037678 17.4883294907223217 28.4264000000000010   T   T   T
  2.7325514829253650  0.9204383942485428 26.3263999999999960   T   T   T
  4.6884830707035219  4.6021919712427177 26.3263999999999960   T   T   T
  6.6444146584816774  8.2839455482368880 26.3263999999999960   T   T   T
  8.6003462462598339 11.9656991252310601 26.3263999999999960   T   T   T
 10.5562778340379921 15.6474527022252374 26.3263999999999960   T   T   T
  3.5379350778928496 19.3292062792194130 26.3263999999999960   T   T   T
  6.2704865608182114 20.2496446734679587 26.3263999999999960   T   T   T
  5.4651029658507300  1.8408767884970856 26.3263999999999960   T   T   T
  7.4210345536288855  5.5226303654912590 26.3263999999999960   T   T   T
  9.3769661414070420  9.2043839424854301 26.3263999999999960   T   T   T
  2.3586233852618990 12.8861375194796057 26.3263999999999960   T   T   T
  4.3145549730400532 16.5678910964737760 26.3263999999999960   T   T   T
  4.4871371719616508 -0.0000000000000006 28.4264000000000010   T   T   T
  6.4430687597398082  3.6817535769941716 28.4264000000000010   T   T   T
  8.3990003475179638  7.3635071539883459 28.4264000000000010   T   T   T
  1.3806575913728183 11.0452607309825179 28.4264000000000010   T   T   T
  3.3365891791509759 14.7270143079766935 28.4264000000000010   T   T   T
  5.2925207669291350 18.4087678849708674 28.4264000000000010   T   T   T
  8.0250722498544960 19.3292062792194130 28.4264000000000010   T   T   T
  7.2196886548870145  0.9204383942485423 28.4264000000000010   T   T   T
  9.1756202426651718  4.6021919712427160 28.4264000000000010   T   T   T
  2.1572774865200266  8.2839455482368880 28.4264000000000010   T   T   T
  4.1132090742981839 11.9656991252310636 28.4264000000000010   T   T   T
  6.0691406620763413 15.6474527022252357 28.4264000000000010   T   T   T
  9.0030380437435777 21.1700830677165008 26.3263999999999960   T   T   T
  8.1976544487760936  2.7613151827456299 26.3263999999999960   T   T   T
  1.1793116926309470  6.4430687597398029 26.3263999999999960   T   T   T
  3.1352432804091048 10.1248223367339740 26.3263999999999960   T   T   T
  5.0911748681872631 13.8065759137281514 26.3263999999999960   T   T   T
  7.0471064559654213 17.4883294907223252 26.3263999999999960   T   T   T
  0.0000000000000000  0.0000000000000000 22.1263999999999967   T   T   T
  1.9559315877781569  3.6817535769941734 22.1263999999999967   T   T   T
  3.9118631755563138  7.3635071539883468 22.1263999999999967   T   T   T
  5.8677947633344694 11.0452607309825197 22.1263999999999967   T   T   T
  7.8237263511126276 14.7270143079766935 22.1263999999999967   T   T   T
  9.7796579388907858 18.4087678849708674 22.1263999999999967   T   T   T
  0.9779657938890784  1.8408767884970867 24.2263999999999982   T   T   T
  2.9338973816672347  5.5226303654912599 24.2263999999999982   T   T   T
  4.8898289694453920  9.2043839424854337 24.2263999999999982   T   T   T
  6.8457605572235476 12.8861375194796057 24.2263999999999982   T   T   T
  8.8016921450017058 16.5678910964737831 24.2263999999999982   T   T   T
 10.7576237327798623 20.2496446734679552 24.2263999999999982   T   T   T
  4.5159008717819251 21.1700830677165008 24.2263999999999982   T   T   T
  3.7105172768144428  2.7613151827456295 24.2263999999999982   T   T   T
  5.6664488645926001  6.4430687597398029 24.2263999999999982   T   T   T
  7.6223804523707557 10.1248223367339740 24.2263999999999982   T   T   T
  9.5783120401489139 13.8065759137281461 24.2263999999999982   T   T   T
  2.5599692840037678 17.4883294907223217 24.2263999999999982   T   T   T
  2.7325514829253650  0.9204383942485428 22.1263999999999967   T   T   T
  4.6884830707035219  4.6021919712427177 22.1263999999999967   T   T   T
  6.6444146584816774  8.2839455482368880 22.1263999999999967   T   T   T
  8.6003462462598339 11.9656991252310601 22.1263999999999967   T   T   T
 10.5562778340379921 15.6474527022252374 22.1263999999999967   T   T   T
  3.5379350778928496 19.3292062792194130 22.1263999999999967   T   T   T
  6.2704865608182114 20.2496446734679587 22.1263999999999967   T   T   T
  5.4651029658507300  1.8408767884970856 22.1263999999999967   T   T   T
  7.4210345536288855  5.5226303654912590 22.1263999999999967   T   T   T
  9.3769661414070420  9.2043839424854301 22.1263999999999967   T   T   T
  2.3586233852618990 12.8861375194796057 22.1263999999999967   T   T   T
  4.3145549730400532 16.5678910964737760 22.1263999999999967   T   T   T
  4.4871371719616508 -0.0000000000000006 24.2263999999999982   T   T   T
  6.4430687597398082  3.6817535769941716 24.2263999999999982   T   T   T
  8.3990003475179638  7.3635071539883459 24.2263999999999982   T   T   T
  1.3806575913728183 11.0452607309825179 24.2263999999999982   T   T   T
  3.3365891791509759 14.7270143079766935 24.2263999999999982   T   T   T
  5.2925207669291350 18.4087678849708674 24.2263999999999982   T   T   T
  8.0250722498544960 19.3292062792194130 24.2263999999999982   T   T   T
  7.2196886548870145  0.9204383942485423 24.2263999999999982   T   T   T
  9.1756202426651718  4.6021919712427160 24.2263999999999982   T   T   T
  2.1572774865200266  8.2839455482368880 24.2263999999999982   T   T   T
  4.1132090742981839 11.9656991252310636 24.2263999999999982   T   T   T
  6.0691406620763413 15.6474527022252357 24.2263999999999982   T   T   T
  9.0030380437435777 21.1700830677165008 22.1263999999999967   T   T   T
  8.1976544487760936  2.7613151827456299 22.1263999999999967   T   T   T
  1.1793116926309470  6.4430687597398029 22.1263999999999967   T   T   T
  3.1352432804091048 10.1248223367339740 22.1263999999999967   T   T   T
  5.0911748681872631 13.8065759137281514 22.1263999999999967   T   T   T
  7.0471064559654213 17.4883294907223252 22.1263999999999967   T   T   T
  0.0000000000000000  0.0000000000000000 28.4264000000000010   T   T   T
  1.9559315877781569  3.6817535769941734 28.4264000000000010   T   T   T
  3.9118631755563138  7.3635071539883468 28.4264000000000010   T   T   T
  5.8677947633344694 11.0452607309825197 28.4264000000000010   T   T   T
  7.8237263511126276 14.7270143079766935 28.4264000000000010   T   T   T
  9.7796579388907858 18.4087678849708674 28.4264000000000010   T   T   T
  2.7325514829253650  0.9204383942485428 28.4264000000000010   T   T   T
  4.6884830707035219  4.6021919712427177 28.4264000000000010   T   T   T
  6.6444146584816774  8.2839455482368880 28.4264000000000010   T   T   T
  8.6003462462598339 11.9656991252310601 28.4264000000000010   T   T   T
 10.5562778340379921 15.6474527022252374 28.4264000000000010   T   T   T
  3.5379350778928496 19.3292062792194130 28.4264000000000010   T   T   T
  4.4871371719616508 -0.0000000000000006 26.3263999999999960   T   T   T
  6.4430687597398082  3.6817535769941716 26.3263999999999960   T   T   T
  8.3990003475179638  7.3635071539883459 26.3263999999999960   T   T   T
  1.3806575913728183 11.0452607309825179 26.3263999999999960   T   T   T
  3.3365891791509759 14.7270143079766935 26.3263999999999960   T   T   T
  5.2925207669291350 18.4087678849708674 26.3263999999999960   T   T   T
  8.0250722498544960 19.3292062792194130 26.3263999999999960   T   T   T
  7.2196886548870145  0.9204383942485423 26.3263999999999960   T   T   T
  9.1756202426651718  4.6021919712427160 26.3263999999999960   T   T   T
  2.1572774865200266  8.2839455482368880 26.3263999999999960   T   T   T
  4.1132090742981839 11.9656991252310636 26.3263999999999960   T   T   T
  6.0691406620763413 15.6474527022252357 26.3263999999999960   T   T   T
  0.0000000000000000  0.0000000000000000 24.2263999999999982   T   T   T
  1.9559315877781569  3.6817535769941734 24.2263999999999982   T   T   T
  3.9118631755563138  7.3635071539883468 24.2263999999999982   T   T   T
  5.8677947633344694 11.0452607309825197 24.2263999999999982   T   T   T
  7.8237263511126276 14.7270143079766935 24.2263999999999982   T   T   T
  9.7796579388907858 18.4087678849708674 24.2263999999999982   T   T   T
  2.7325514829253650  0.9204383942485428 24.2263999999999982   T   T   T
  4.6884830707035219  4.6021919712427177 24.2263999999999982   T   T   T
  6.6444146584816774  8.2839455482368880 24.2263999999999982   T   T   T
  8.6003462462598339 11.9656991252310601 24.2263999999999982   T   T   T
 10.5562778340379921 15.6474527022252374 24.2263999999999982   T   T   T
  3.5379350778928496 19.3292062792194130 24.2263999999999982   T   T   T
  4.4871371719616508 -0.0000000000000006 22.1263999999999967   T   T   T
  6.4430687597398082  3.6817535769941716 22.1263999999999967   T   T   T
  8.3990003475179638  7.3635071539883459 22.1263999999999967   T   T   T
  1.3806575913728183 11.0452607309825179 22.1263999999999967   T   T   T
  3.3365891791509759 14.7270143079766935 22.1263999999999967   T   T   T
  5.2925207669291350 18.4087678849708674 22.1263999999999967   T   T   T
  8.0250722498544960 19.3292062792194130 22.1263999999999967   T   T   T
  7.2196886548870145  0.9204383942485423 22.1263999999999967   T   T   T
  9.1756202426651718  4.6021919712427160 22.1263999999999967   T   T   T
  2.1572774865200266  8.2839455482368880 22.1263999999999967   T   T   T
  4.1132090742981839 11.9656991252310636 22.1263999999999967   T   T   T
  6.0691406620763413 15.6474527022252357 22.1263999999999967   T   T   T
  4.3726792031785280  9.4586766053981304 30.2264000000000017   T   T   T
  4.3726792031785280 11.8586766053981290 30.2264000000000017   T   T   T
  6.7726792031785283  9.4586766053981304 30.2264000000000017   T   T   T
  6.7726792031785283 11.8586766053981290 30.2264000000000017   T   T   T
