Ni Mo S  Au
 1.0000000000000000
    11.4061036291978333    0.0000000000000000    0.0000000000000007
     0.0000000000000032   19.7559510021664089    0.0000000000000012
     0.0000000000000000    0.0000000000000000   43.6115276852849334
 Ni  Mo  S   Au 
 168  52 104   4
Selective dynamics
Cartesian
  2.4441650633995402 19.2855712164005446 11.4028819213212369   F   F   F
  0.8147216877998495 17.4040520733370734 11.4028819213212405   F   F   F
  4.8883301267990742 18.8151914306346768 11.4028819213212369   F   F   F
  3.2588867511993835 16.9336722875712091 11.4028819213212405   F   F   F
  1.6294433755996922 15.0521531445077397 11.4028819213212369   F   F   F
  0.0000000000000018 13.1706340014442720 11.4028819213212333   F   F   F
  7.3324951901986077 18.3448116448688090 11.4028819213212405   F   F   F
  5.7030518145989193 16.4632925018053378 11.4028819213212405   F   F   F
  4.0736084389992282 14.5817733587418736 11.4028819213212369   F   F   F
  2.4441650633995375 12.7002542156784042 11.4028819213212369   F   F   F
  0.8147216877998463 10.8187350726149401 11.4028819213212369   F   F   F
  9.7766602535981466 17.8744318591029412 11.4028819213212405   F   F   F
  8.1472168779984511 15.9929127160394735 11.4028819213212369   F   F   F
  6.5177735023987600 14.1113935729760058 11.4028819213212369   F   F   F
  4.8883301267990724 12.2298744299125417 11.4028819213212405   F   F   F
  3.2588867511993813 10.3483552868490722 11.4028819213212369   F   F   F
  1.6294433755996913  8.4668361437856028 11.4028819213212369   F   F   F
  0.0000000000000011  6.5853170007221360 11.4028819213212369   F   F   F
 10.5913819413979891 15.5225329302736039 11.4028819213212405   F   F   F
  8.9619385657982971 13.6410137872101398 11.4028819213212369   F   F   F
  7.3324951901986095 11.7594946441466739 11.4028819213212369   F   F   F
  5.7030518145989175  9.8779755010832044 11.4028819213212405   F   F   F
  4.0736084389992273  7.9964563580197368 11.4028819213212369   F   F   F
  2.4441650633995367  6.1149372149562682 11.4028819213212369   F   F   F
  0.8147216877998459  4.2334180718928023 11.4028819213212369   F   F   F
  9.7766602535981395 11.2891148583808043 11.4028819213212405   F   F   F
  8.1472168779984528  9.4075957153173349 11.4028819213212369   F   F   F
  6.5177735023987609  7.5260765722538672 11.4028819213212369   F   F   F
  4.8883301267990724  5.6445574291904013 11.4028819213212369   F   F   F
  3.2588867511993804  3.7630382861269327 11.4028819213212369   F   F   F
  1.6294433755996902  1.8815191430634663 11.4028819213212369   F   F   F
  0.0000000000000001 -0.0000000000000005 11.4028819213212369   F   F   F
 10.5913819413979873  8.9372159295514670 11.4028819213212405   F   F   F
  8.9619385657982971  7.0556967864880020 11.4028819213212405   F   F   F
  7.3324951901986068  5.1741776434245352 11.4028819213212369   F   F   F
  5.7030518145989175  3.2926585003610658 11.4028819213212369   F   F   F
  4.0736084389992264  1.4111393572975990 11.4028819213212369   F   F   F
  9.7766602535981413  4.7037978576586674 11.4028819213212369   F   F   F
  8.1472168779984511  2.8222787145951989 11.4028819213212333   F   F   F
  6.5177735023987617  0.9407595715317315 11.4028819213212369   F   F   F
 10.5913819413979855  2.3518989288293310 11.4028819213212369   F   F   F
  8.9619385657982953  0.4703797857658633 11.4028819213212369   F   F   F
  2.1725911674662579 17.8744318591029412 13.4351548688687199   F   F   F
  0.5431477918665660 15.9929127160394735 13.4351548688687199   F   F   F
  4.6167562308657937 17.4040520733370734 13.4351548688687199   F   F   F
  2.9873128552661035 15.5225329302736039 13.4351548688687199   F   F   F
  1.3578694796664117 13.6410137872101398 13.4351548688687199   F   F   F
 11.1345297332645536 11.7594946441466721 13.4351548688687199   F   F   F
  7.0609212942653272 16.9336722875712091 13.4351548688687199   F   F   F
  5.4314779186656370 15.0521531445077379 13.4351548688687235   F   F   F
  3.8020345430659459 13.1706340014442738 13.4351548688687199   F   F   F
  2.1725911674662557 11.2891148583808061 13.4351548688687235   F   F   F
  0.5431477918665651  9.4075957153173384 13.4351548688687235   F   F   F
  9.5050863576648652 16.4632925018053378 13.4351548688687199   F   F   F
  7.8756429820651732 14.5817733587418719 13.4351548688687199   F   F   F
  6.2461996064654803 12.7002542156784060 13.4351548688687235   F   F   F
  4.6167562308657910 10.8187350726149365 13.4351548688687199   F   F   F
  2.9873128552661008  8.9372159295514724 13.4351548688687199   F   F   F
  1.3578694796664101  7.0556967864880011 13.4351548688687199   F   F   F
 11.1345297332645519  5.1741776434245326 13.4351548688687199   F   F   F
 10.3198080454647112 14.1113935729760041 13.4351548688687199   F   F   F
  8.6903646698650174 12.2298744299125399 13.4351548688687199   F   F   F
  7.0609212942653263 10.3483552868490705 13.4351548688687199   F   F   F
  5.4314779186656361  8.4668361437856046 13.4351548688687199   F   F   F
  3.8020345430659459  6.5853170007221351 13.4351548688687199   F   F   F
  2.1725911674662552  4.7037978576586683 13.4351548688687199   F   F   F
  0.5431477918665644  2.8222787145952002 13.4351548688687199   F   F   F
  9.5050863576648617  9.8779755010832027 13.4351548688687235   F   F   F
  7.8756429820651688  7.9964563580197341 13.4351548688687199   F   F   F
  6.2461996064654803  6.1149372149562673 13.4351548688687199   F   F   F
  4.6167562308657910  4.2334180718927987 13.4351548688687199   F   F   F
  2.9873128552660990  2.3518989288293315 13.4351548688687199   F   F   F
  1.3578694796664086  0.4703797857658646 13.4351548688687199   F   F   F
 11.1345297332645554 18.3448116448688054 13.4351548688687199   F   F   F
 10.3198080454647076  7.5260765722538654 13.4351548688687199   F   F   F
  8.6903646698650157  5.6445574291904004 13.4351548688687235   F   F   F
  7.0609212942653254  3.7630382861269327 13.4351548688687199   F   F   F
  5.4314779186656335  1.8815191430634646 13.4351548688687199   F   F   F
  3.8020345430659459 19.7559510021664089 13.4351548688687199   F   F   F
  9.5050863576648581  3.2926585003610653 13.4351548688687199   F   F   F
  7.8756429820651688  1.4111393572975972 13.4351548688687199   F   F   F
  6.2461996064654821 19.2855712164005411 13.4351548688687199   F   F   F
 10.3198080454647059  0.9407595715317287 13.4351548688687199   F   F   F
  8.6903646698650192 18.8151914306346733 13.4351548688687235   F   F   F
  3.5304606471326658 18.3448116448688090 15.4674278164162029   T   T   T
  1.9010172715329752 16.4632925018053413 15.4674278164162029   T   T   T
  5.9746257105321998 17.8744318591029376 15.4674278164162065   T   T   T
  4.3451823349325096 15.9929127160394735 15.4674278164162029   T   T   T
  2.7157389593328194 14.1113935729760041 15.4674278164162065   T   T   T
  1.0862955837331274 12.2298744299125364 15.4674278164161993   T   T   T
  8.4187907739317360 17.4040520733370734 15.4674278164162029   T   T   T
  6.7893473983320449 15.5225329302736039 15.4674278164162065   T   T   T
  5.1599040227323520 13.6410137872101416 15.4674278164162065   T   T   T
  3.5304606471326618 11.7594946441466703 15.4674278164162065   T   T   T
  1.9010172715329723  9.8779755010832027 15.4674278164162029   T   T   T
 10.8629558373312705 16.9336722875712056 15.4674278164162065   T   T   T
  9.2335124617315802 15.0521531445077397 15.4674278164162065   T   T   T
  7.6040690861318874 13.1706340014442702 15.4674278164162029   T   T   T
  5.9746257105321989 11.2891148583808061 15.4674278164162029   T   T   T
  4.3451823349325087  9.4075957153173366 15.4674278164161993   T   T   T
  2.7157389593328176  7.5260765722538672 15.4674278164161993   T   T   T
  1.0862955837331274  5.6445574291904013 15.4674278164162029   T   T   T
  0.2715738959332809 14.5817733587418701 15.4674278164162065   T   T   T
 10.0482341495314245 12.7002542156784024 15.4674278164162065   T   T   T
  8.4187907739317343 10.8187350726149365 15.4674278164162029   T   T   T
  6.7893473983320431  8.9372159295514670 15.4674278164162029   T   T   T
  5.1599040227323529  7.0556967864880002 15.4674278164161993   T   T   T
  3.5304606471326623  5.1741776434245352 15.4674278164161993   T   T   T
  1.9010172715329716  3.2926585003610662 15.4674278164161993   T   T   T
 10.8629558373312687 10.3483552868490705 15.4674278164162065   T   T   T
  9.2335124617315767  8.4668361437856010 15.4674278164162065   T   T   T
  7.6040690861318891  6.5853170007221307 15.4674278164161993   T   T   T
  5.9746257105321980  4.7037978576586656 15.4674278164162029   T   T   T
  4.3451823349325069  2.8222787145951989 15.4674278164162029   T   T   T
  2.7157389593328158  0.9407595715317310 15.4674278164162029   T   T   T
  1.0862955837331281 18.8151914306346733 15.4674278164162029   T   T   T
  0.2715738959332801  7.9964563580197323 15.4674278164162029   T   T   T
 10.0482341495314227  6.1149372149562637 15.4674278164162065   T   T   T
  8.4187907739317325  4.2334180718927987 15.4674278164162029   T   T   T
  6.7893473983320423  2.3518989288293306 15.4674278164162029   T   T   T
  5.1599040227323512  0.4703797857658635 15.4674278164162029   T   T   T
 10.8629558373312687  3.7630382861269314 15.4674278164162065   T   T   T
  9.2335124617315785  1.8815191430634635 15.4674278164161993   T   T   T
  7.6040690861318909 19.7559510021664053 15.4674278164162065   T   T   T
  0.2715738959332792  1.4111393572975961 15.4674278164161993   T   T   T
 10.0482341495314245 19.2855712164005375 15.4674278164162065   T   T   T
  2.4441650633995384 19.2855712164005446 17.4997007639636877   T   T   T
  0.8147216877998483 17.4040520733370734 17.4997007639636877   T   T   T
  4.8883301267990733 18.8151914306346733 17.4997007639636877   T   T   T
  3.2588867511993826 16.9336722875712056 17.4997007639636877   T   T   T
  1.6294433755996924 15.0521531445077397 17.4997007639636877   T   T   T
  0.0000000000000015 13.1706340014442702 17.4997007639636877   T   T   T
  7.3324951901986086 18.3448116448688090 17.4997007639636877   T   T   T
  5.7030518145989184 16.4632925018053378 17.4997007639636877   T   T   T
  4.0736084389992273 14.5817733587418719 17.4997007639636877   T   T   T
  2.4441650633995367 12.7002542156784024 17.4997007639636877   T   T   T
  0.8147216877998453 10.8187350726149401 17.4997007639636877   T   T   T
  9.7766602535981448 17.8744318591029412 17.4997007639636877   T   T   T
  8.1472168779984528 15.9929127160394717 17.4997007639636877   T   T   T
  6.5177735023987617 14.1113935729760041 17.4997007639636877   T   T   T
  4.8883301267990733 12.2298744299125346 17.4997007639636877   T   T   T
  3.2588867511993818 10.3483552868490722 17.4997007639636877   T   T   T
  1.6294433755996911  8.4668361437856010 17.4997007639636877   T   T   T
  0.0000000000000007  6.5853170007221351 17.4997007639636877   T   T   T
 10.5913819413979908 15.5225329302736039 17.4997007639636877   T   T   T
  8.9619385657982988 13.6410137872101362 17.4997007639636877   T   T   T
  7.3324951901986095 11.7594946441466739 17.4997007639636877   T   T   T
  5.7030518145989175  9.8779755010832044 17.4997007639636877   T   T   T
  4.0736084389992273  7.9964563580197341 17.4997007639636877   T   T   T
  2.4441650633995362  6.1149372149562673 17.4997007639636877   T   T   T
  0.8147216877998452  4.2334180718927987 17.4997007639636877   T   T   T
  9.7766602535981448 11.2891148583808008 17.4997007639636877   T   T   T
  8.1472168779984511  9.4075957153173331 17.4997007639636877   T   T   T
  6.5177735023987600  7.5260765722538672 17.4997007639636877   T   T   T
  4.8883301267990706  5.6445574291903977 17.4997007639636877   T   T   T
  3.2588867511993800  3.7630382861269305 17.4997007639636877   T   T   T
  1.6294433755996900  1.8815191430634635 17.4997007639636877   T   T   T
 11.4061036291978350 19.7559510021664053 17.4997007639636877   T   T   T
 10.5913819413979908  8.9372159295514670 17.4997007639636877   T   T   T
  8.9619385657982953  7.0556967864880002 17.4997007639636877   T   T   T
  7.3324951901986068  5.1741776434245308 17.4997007639636877   T   T   T
  5.7030518145989166  3.2926585003610631 17.4997007639636877   T   T   T
  4.0736084389992246  1.4111393572975961 17.4997007639636877   T   T   T
  9.7766602535981413  4.7037978576586630 17.4997007639636877   T   T   T
  8.1472168779984511  2.8222787145951980 17.4997007639636877   T   T   T
  6.5177735023987617  0.9407595715317293 17.4997007639636877   T   T   T
 10.5913819413979873  2.3518989288293297 17.4997007639636877   T   T   T
  8.9619385657982953  0.4703797857658619 17.4997007639636877   T   T   T
  8.7739258687891972 17.2231367710687806 30.4086457639636976   T   T   T
 10.9674073359426245 14.9436039631265025 30.4086457639636976   T   T   T
  5.7030518147743958 16.4632925017546867 30.4086457639636976   T   T   T
  7.8965332819278240 14.1837596938124122 30.4086457639636976   T   T   T
 10.0900147490812522 11.9042268858701306 30.4086457639636976   T   T   T
  2.6321777607595949 15.7034482324405946 30.4086457639636976   T   T   T
  4.8256592279130226 13.4239154244983183 30.4086457639636976   T   T   T
  7.0191406950664517 11.1443826165560385 30.4086457639636976   T   T   T
  9.2126221622198816  8.8648498086137604 30.4086457639636976   T   T   T
  0.0000000001754764  6.5853170006714814 30.4086457639636976   T   T   T
  1.7547851738982230 12.6640711551842227 30.4086457639636976   T   T   T
  3.9482666410516516 10.3845383472419446 30.4086457639636976   T   T   T
  6.1417481082050811  8.1050055392996683 30.4086457639636976   T   T   T
  8.3352295753585075  5.8254727313573893 30.4086457639636976   T   T   T
 10.5287110425119383  3.5459399234151108 30.4086457639636976   T   T   T
  0.8773925870368515  9.6246940779278507 30.4086457639636976   T   T   T
  3.0708740541902801  7.3451612699855726 30.4086457639636976   T   T   T
  5.2643555213437088  5.0656284620432936 30.4086457639636976   T   T   T
  7.4578369884971369  2.7860956541010178 30.4086457639636976   T   T   T
  9.6513184556505660  0.5065628461587390 30.4086457639636976   T   T   T
  2.1934814673289078  4.3057841927292015 30.4086457639636976   T   T   T
  4.3869629344823355  2.0262513847869239 30.4086457639636976   T   T   T
  6.5804444016357699 19.5026695790110551 30.4086457639636976   T   T   T
  1.3160888804675359  1.2664071154728314 30.4086457639636976   T   T   T
  3.5095703476209672 18.7428253096969613 30.4086457639636976   T   T   T
  0.4386962936061670 17.9829810403828709 30.4086457639636976   T   T   T
  7.0191406947154942 17.7296996173794881 24.2611457639637038   T   T   T
  9.2126221618689232 15.4501668094372082 24.2611457639637038   T   T   T
  3.9482666407006937 16.9698553480653906 24.2611457639637038   T   T   T
  6.1417481078541227 14.6903225401231179 24.2611457639637038   T   T   T
  8.3352295750075545 12.4107897321808345 24.2611457639637038   T   T   T
  0.8773925866858926 16.2100110787512968 24.2611457639637038   T   T   T
  3.0708740538393213 13.9304782708090222 24.2611457639637038   T   T   T
  5.2643555209927495 11.6509454628667424 24.2611457639637038   T   T   T
  7.4578369881461812  9.3714126549244661 24.2611457639637038   T   T   T
  9.6513184552996094  7.0918798469821880 24.2611457639637038   T   T   T
 11.4061036290223541 13.1706340014949319 24.2611457639637038   T   T   T
  2.1934814669779503 10.8911011935526503 24.2611457639637038   T   T   T
  4.3869629341313807  8.6115683856103740 24.2611457639637038   T   T   T
  6.5804444012848071  6.3320355776680950 24.2611457639637038   T   T   T
  8.7739258684382353  4.0525027697258178 24.2611457639637038   T   T   T
 10.5287110421609817 10.1312569242385582 24.2611457639637038   T   T   T
  1.3160888801165787  7.8517241162962801 24.2611457639637038   T   T   T
  3.5095703472700075  5.5721913083540002 24.2611457639637038   T   T   T
  5.7030518144234357  3.2926585004117244 24.2611457639637038   T   T   T
  7.8965332815768638  1.0131256924694454 24.2611457639637038   T   T   T
  0.4386962932552065  4.8123470390399090 24.2611457639637038   T   T   T
  2.6321777604086338  2.5328142310976314 24.2611457639637038   T   T   T
  4.8256592275620633  0.2532814231553527 24.2611457639637038   T   T   T
 10.9674073355916679  1.7729699617835379 24.2611457639637038   T   T   T
  1.7547851735472655 19.2493881560076723 24.2611457639637038   T   T   T
 10.0900147487303009 18.4895438866935784 24.2611457639637038   T   T   T
  8.7739258687891972 17.2231367710687771 22.6750907639636949   T   T   T
 10.9674073359426245 14.9436039631264990 22.6750907639636949   T   T   T
  5.7030518147743958 16.4632925017546867 22.6750907639636949   T   T   T
  7.8965332819278240 14.1837596938124104 22.6750907639636949   T   T   T
 10.0900147490812522 11.9042268858701288 22.6750907639636949   T   T   T
  2.6321777607595944 15.7034482324405911 22.6750907639636949   T   T   T
  4.8256592279130226 13.4239154244983148 22.6750907639636949   T   T   T
  7.0191406950664517 11.1443826165560367 22.6750907639636949   T   T   T
  9.2126221622198816  8.8648498086137586 22.6750907639637020   T   T   T
  0.0000000001754761  6.5853170006714805 22.6750907639636949   T   T   T
  1.7547851738982225 12.6640711551842209 22.6750907639636949   T   T   T
  3.9482666410516511 10.3845383472419428 22.6750907639637020   T   T   T
  6.1417481082050811  8.1050055392996665 22.6750907639637020   T   T   T
  8.3352295753585075  5.8254727313573884 22.6750907639637020   T   T   T
 10.5287110425119383  3.5459399234151103 22.6750907639636949   T   T   T
  0.8773925870368514  9.6246940779278507 22.6750907639637020   T   T   T
  3.0708740541902793  7.3451612699855717 22.6750907639637020   T   T   T
  5.2643555213437079  5.0656284620432928 22.6750907639636949   T   T   T
  7.4578369884971369  2.7860956541010169 22.6750907639636949   T   T   T
  9.6513184556505660  0.5065628461587381 22.6750907639636949   T   T   T
  2.1934814673289078  4.3057841927292015 22.6750907639636949   T   T   T
  4.3869629344823347  2.0262513847869230 22.6750907639636949   T   T   T
  6.5804444016357699 19.5026695790110516 22.6750907639636949   T   T   T
  1.3160888804675357  1.2664071154728302 22.6750907639636949   T   T   T
  3.5095703476209668 18.7428253096969613 22.6750907639636949   T   T   T
  0.4386962936061667 17.9829810403828674 22.6750907639636949   T   T   T
  7.0191406947154942 17.7296996173794881 28.8225907639636958   T   T   T
  9.2126221618689232 15.4501668094372082 28.8225907639636958   T   T   T
  3.9482666407006937 16.9698553480653906 28.8225907639636958   T   T   T
  6.1417481078541227 14.6903225401231179 28.8225907639636958   T   T   T
  8.3352295750075545 12.4107897321808345 28.8225907639636958   T   T   T
  0.8773925866858928 16.2100110787512968 28.8225907639636958   T   T   T
  3.0708740538393213 13.9304782708090222 28.8225907639636958   T   T   T
  5.2643555209927495 11.6509454628667424 28.8225907639636958   T   T   T
  7.4578369881461812  9.3714126549244678 28.8225907639636958   T   T   T
  9.6513184552996094  7.0918798469821889 28.8225907639636958   T   T   T
 11.4061036290223541 13.1706340014949319 28.8225907639636958   T   T   T
  2.1934814669779508 10.8911011935526503 28.8225907639636958   T   T   T
  4.3869629341313807  8.6115683856103757 28.8225907639636958   T   T   T
  6.5804444012848071  6.3320355776680959 28.8225907639636958   T   T   T
  8.7739258684382353  4.0525027697258187 28.8225907639636958   T   T   T
 10.5287110421609817 10.1312569242385582 28.8225907639636958   T   T   T
  1.3160888801165787  7.8517241162962810 28.8225907639636958   T   T   T
  3.5095703472700075  5.5721913083540011 28.8225907639636958   T   T   T
  5.7030518144234357  3.2926585004117253 28.8225907639636958   T   T   T
  7.8965332815768638  1.0131256924694458 28.8225907639636958   T   T   T
  0.4386962932552066  4.8123470390399090 28.8225907639636958   T   T   T
  2.6321777604086343  2.5328142310976318 28.8225907639636958   T   T   T
  4.8256592275620633  0.2532814231553533 28.8225907639636958   T   T   T
 10.9674073355916679  1.7729699617835386 28.8225907639636958   T   T   T
  1.7547851735472657 19.2493881560076723 28.8225907639636958   T   T   T
 10.0900147487303009 18.4895438866935784 28.8225907639636958   T   T   T
  7.0191406947154933 17.7296996173794881 19.6997007639636905   T   T   T
  9.2126221618689215 15.4501668094372082 19.6997007639636905   T   T   T
  3.9482666407006937 16.9698553480653906 19.6997007639636905   T   T   T
  6.1417481078541218 14.6903225401231179 19.6997007639636905   T   T   T
  8.3352295750075527 12.4107897321808345 19.6997007639636905   T   T   T
  0.8773925866858925 16.2100110787512968 19.6997007639636905   T   T   T
  3.0708740538393213 13.9304782708090222 19.6997007639636905   T   T   T
  5.2643555209927495 11.6509454628667424 19.6997007639636905   T   T   T
  7.4578369881461812  9.3714126549244643 19.6997007639636905   T   T   T
  9.6513184552996076  7.0918798469821880 19.6997007639636905   T   T   T
 11.4061036290223523 13.1706340014949319 19.6997007639636905   T   T   T
  2.1934814669779503 10.8911011935526503 19.6997007639636905   T   T   T
  4.3869629341313807  8.6115683856103740 19.6997007639636905   T   T   T
  6.5804444012848053  6.3320355776680950 19.6997007639636905   T   T   T
  8.7739258684382335  4.0525027697258169 19.6997007639636905   T   T   T
 10.5287110421609800 10.1312569242385582 19.6997007639636905   T   T   T
  1.3160888801165787  7.8517241162962783 19.6997007639636905   T   T   T
  3.5095703472700075  5.5721913083540002 19.6997007639636905   T   T   T
  5.7030518144234357  3.2926585004117239 19.6997007639636905   T   T   T
  7.8965332815768630  1.0131256924694447 19.6997007639636905   T   T   T
  0.4386962932552063  4.8123470390399081 19.6997007639636905   T   T   T
  2.6321777604086338  2.5328142310976309 19.6997007639636905   T   T   T
  4.8256592275620633  0.2532814231553521 19.6997007639636905   T   T   T
 10.9674073355916661  1.7729699617835375 19.6997007639636905   T   T   T
  1.7547851735472655 19.2493881560076723 19.6997007639636905   T   T   T
 10.0900147487302991 18.4895438866935784 19.6997007639636905   T   T   T
  8.7739258687891972 17.2231367710687771 25.8472007639636985   T   T   T
 10.9674073359426245 14.9436039631264990 25.8472007639636985   T   T   T
  5.7030518147743958 16.4632925017546867 25.8472007639636985   T   T   T
  7.8965332819278240 14.1837596938124104 25.8472007639636985   T   T   T
 10.0900147490812522 11.9042268858701288 25.8472007639636985   T   T   T
  2.6321777607595966 15.7034482324405911 25.8472007639636985   T   T   T
  4.8256592279130235 13.4239154244983130 25.8472007639636985   T   T   T
  7.0191406950664517 11.1443826165560367 25.8472007639636985   T   T   T
  9.2126221622198798  8.8648498086137568 25.8472007639637056   T   T   T
  0.0000000001754759  6.5853170006714805 25.8472007639636985   T   T   T
  1.7547851738982234 12.6640711551842209 25.8472007639636985   T   T   T
  3.9482666410516520 10.3845383472419428 25.8472007639637056   T   T   T
  6.1417481082050811  8.1050055392996665 25.8472007639637056   T   T   T
  8.3352295753585093  5.8254727313573884 25.8472007639637056   T   T   T
 10.5287110425119383  3.5459399234151099 25.8472007639636985   T   T   T
  0.8773925870368514  9.6246940779278507 25.8472007639637056   T   T   T
  3.0708740541902801  7.3451612699855717 25.8472007639637056   T   T   T
  5.2643555213437097  5.0656284620432936 25.8472007639636985   T   T   T
  7.4578369884971369  2.7860956541010169 25.8472007639636985   T   T   T
  9.6513184556505660  0.5065628461587377 25.8472007639636985   T   T   T
  2.1934814673289087  4.3057841927292015 25.8472007639636985   T   T   T
  4.3869629344823355  2.0262513847869230 25.8472007639636985   T   T   T
  6.5804444016357699 19.5026695790110516 25.8472007639636985   T   T   T
  1.3160888804675361  1.2664071154728302 25.8472007639636985   T   T   T
  3.5095703476209668 18.7428253096969613 25.8472007639636985   T   T   T
  0.4386962936061675 17.9829810403828674 25.8472007639636985   T   T   T
  4.4326437675051000  8.7389506584972967 32.2086457639637018   T   T   T
  4.4326437675051000 11.1389506584972953 32.2086457639637018   T   T   T
  6.8326437675051004  8.7389506584972967 32.2086457639637018   T   T   T
  6.8326437675051004 11.1389506584972953 32.2086457639637018   T   T   T
