Ni Mo Pt Mo C 
 1.0000000000000000
    15.7419185615985189    0.0000000000000000    0.0000000000000010
     5.5096714965594824   24.3999737704777040    0.0000000000000015
     0.0000000000000000    0.0000000000000000   35.7548750000000055
 Ni  Mo  Pt  Mo  C  
 248  55   1 136  96
Selective dynamics
Cartesian
  0.0000000000000000  0.0000000000000000 13.5200000000000031   T   T   T
  0.7870959280799265  2.3612877842397779 13.5200000000000031   T   T   T
  1.5741918561598529  4.7225755684795558 13.5200000000000031   T   T   T
  2.3612877842397779  7.0838633527193329 13.5200000000000031   T   T   T
  3.1483837123197058  9.4451511369591117 13.5200000000000031   T   T   T
  3.9354796403996319 11.8064389211988896 13.5200000000000031   T   T   T
  4.7225755684795558 14.1677267054386657 13.5200000000000031   T   T   T
  5.5096714965594815 16.5290144896784419 13.5200000000000031   T   T   T
  6.2967674246394116 18.8903022739182234 13.5200000000000031   T   T   T
  7.0838633527193373 21.2515900581580013 13.5200000000000031   T   T   T
  7.8709592807992639 23.6128778423977792 13.5200000000000031   T   T   T
  3.1483837123197036  1.5741918561598522 13.5200000000000031   T   T   T
  3.9354796403996302  3.9354796403996297 13.5200000000000031   T   T   T
  4.7225755684795567  6.2967674246394072 13.5200000000000031   T   T   T
  5.5096714965594824  8.6580552088791851 13.5200000000000031   T   T   T
  6.2967674246394090 11.0193429931189613 13.5200000000000031   T   T   T
  7.0838633527193338 13.3806307773587392 13.5200000000000031   T   T   T
  7.8709592807992621 15.7419185615985153 13.5200000000000031   T   T   T
  8.6580552088791869 18.1032063458382950 13.5200000000000031   T   T   T
  9.4451511369591135 20.4644941300780694 13.5200000000000031   T   T   T
 10.2322470650390436 22.8257819143178473 13.5200000000000031   T   T   T
  5.5096714965594806  0.7870959280799269 13.5200000000000031   T   T   T
  6.2967674246394072  3.1483837123197045 13.5200000000000031   T   T   T
  7.0838633527193338  5.5096714965594824 13.5200000000000031   T   T   T
  7.8709592807992603  7.8709592807992594 13.5200000000000031   T   T   T
  8.6580552088791851 10.2322470650390365 13.5200000000000031   T   T   T
  9.4451511369591135 12.5935348492788144 13.5200000000000031   T   T   T
 10.2322470650390400 14.9548226335185923 13.5200000000000031   T   T   T
 11.0193429931189648 17.3161104177583702 13.5200000000000031   T   T   T
 11.8064389211988896 19.6773982019981482 13.5200000000000031   T   T   T
 12.5935348492788179 22.0386859862379225 13.5200000000000031   T   T   T
  7.8709592807992577  0.0000000000000014 13.5200000000000031   T   T   T
  8.6580552088791851  2.3612877842397793 13.5200000000000031   T   T   T
  9.4451511369591117  4.7225755684795567 13.5200000000000031   T   T   T
 10.2322470650390365  7.0838633527193329 13.5200000000000031   T   T   T
 11.0193429931189630  9.4451511369591117 13.5200000000000031   T   T   T
 11.8064389211988914 11.8064389211988896 13.5200000000000031   T   T   T
 12.5935348492788144 14.1677267054386657 13.5200000000000031   T   T   T
 13.3806307773587410 16.5290144896784454 13.5200000000000031   T   T   T
 14.1677267054386711 18.8903022739182234 13.5200000000000031   T   T   T
 14.9548226335185976 21.2515900581580013 13.5200000000000031   T   T   T
 15.7419185615985242 23.6128778423977792 13.5200000000000031   T   T   T
 11.0193429931189613  1.5741918561598538 13.5200000000000031   T   T   T
 11.8064389211988860  3.9354796403996302 13.5200000000000031   T   T   T
 12.5935348492788144  6.2967674246394090 13.5200000000000031   T   T   T
 13.3806307773587427  8.6580552088791851 13.5200000000000031   T   T   T
 14.1677267054386675 11.0193429931189648 13.5200000000000031   T   T   T
 14.9548226335185941 13.3806307773587392 13.5200000000000031   T   T   T
 15.7419185615985207 15.7419185615985189 13.5200000000000031   T   T   T
 16.5290144896784454 18.1032063458382950 13.5200000000000031   T   T   T
 17.3161104177583702 20.4644941300780729 13.5200000000000031   T   T   T
 18.1032063458382986 22.8257819143178473 13.5200000000000031   T   T   T
 13.3806307773587410  0.7870959280799293 13.5200000000000031   T   T   T
 14.1677267054386657  3.1483837123197058 13.5200000000000031   T   T   T
 14.9548226335185923  5.5096714965594833 13.5200000000000031   T   T   T
 15.7419185615985207  7.8709592807992621 13.5200000000000031   T   T   T
 16.5290144896784454 10.2322470650390382 13.5200000000000031   T   T   T
 17.3161104177583667 12.5935348492788144 13.5200000000000031   T   T   T
 18.1032063458382950 14.9548226335185923 13.5200000000000031   T   T   T
 18.8903022739182234 17.3161104177583702 13.5200000000000031   T   T   T
 19.6773982019981517 19.6773982019981482 13.5200000000000031   T   T   T
 20.4644941300780729 22.0386859862379225 13.5200000000000031   T   T   T
  1.5741918561598518  0.7870959280799262 15.2800000000000047   T   T   T
  2.3612877842397784  3.1483837123197036 15.2800000000000047   T   T   T
  3.1483837123197045  5.5096714965594806 15.2800000000000047   T   T   T
  3.9354796403996311  7.8709592807992577 15.2800000000000047   T   T   T
  4.7225755684795576 10.2322470650390365 15.2800000000000047   T   T   T
  5.5096714965594824 12.5935348492788144 15.2800000000000047   T   T   T
  6.2967674246394107 14.9548226335185905 15.2800000000000047   T   T   T
  7.0838633527193338 17.3161104177583702 15.2800000000000047   T   T   T
  7.8709592807992639 19.6773982019981482 15.2800000000000047   T   T   T
  8.6580552088791887 22.0386859862379296 15.2800000000000047   T   T   T
  3.9354796403996333  0.0000000000000003 15.2800000000000047   T   T   T
  4.7225755684795558  2.3612877842397784 15.2800000000000047   T   T   T
  5.5096714965594815  4.7225755684795558 15.2800000000000047   T   T   T
  6.2967674246394090  7.0838633527193338 15.2800000000000047   T   T   T
  7.0838633527193355  9.4451511369591135 15.2800000000000047   T   T   T
  7.8709592807992639 11.8064389211988896 15.2800000000000047   T   T   T
  8.6580552088791869 14.1677267054386657 15.2800000000000047   T   T   T
  9.4451511369591135 16.5290144896784419 15.2800000000000047   T   T   T
 10.2322470650390400 18.8903022739182234 15.2800000000000047   T   T   T
 11.0193429931189666 21.2515900581579977 15.2800000000000047   T   T   T
 11.8064389211988932 23.6128778423977757 15.2800000000000047   T   T   T
  7.0838633527193329  1.5741918561598529 15.2800000000000047   T   T   T
  7.8709592807992603  3.9354796403996311 15.2800000000000047   T   T   T
  8.6580552088791869  6.2967674246394072 15.2800000000000047   T   T   T
  9.4451511369591117  8.6580552088791851 15.2800000000000047   T   T   T
 10.2322470650390365 11.0193429931189613 15.2800000000000047   T   T   T
 11.0193429931189648 13.3806307773587392 15.2800000000000047   T   T   T
 11.8064389211988896 15.7419185615985207 15.2800000000000047   T   T   T
 12.5935348492788215 18.1032063458382950 15.2800000000000047   T   T   T
 13.3806307773587392 20.4644941300780729 15.2800000000000047   T   T   T
 14.1677267054386711 22.8257819143178544 15.2800000000000047   T   T   T
  9.4451511369591099  0.7870959280799279 15.2800000000000047   T   T   T
 10.2322470650390365  3.1483837123197058 15.2800000000000047   T   T   T
 11.0193429931189648  5.5096714965594824 15.2800000000000047   T   T   T
 11.8064389211988896  7.8709592807992603 15.2800000000000047   T   T   T
 12.5935348492788179 10.2322470650390382 15.2800000000000047   T   T   T
 13.3806307773587427 12.5935348492788144 15.2800000000000047   T   T   T
 14.1677267054386675 14.9548226335185905 15.2800000000000047   T   T   T
 14.9548226335185941 17.3161104177583702 15.2800000000000047   T   T   T
 15.7419185615985242 19.6773982019981482 15.2800000000000047   T   T   T
 16.5290144896784490 22.0386859862379296 15.2800000000000047   T   T   T
 11.8064389211988914  0.0000000000000068 15.2800000000000047   T   T   T
 12.5935348492788126  2.3612877842397793 15.2800000000000047   T   T   T
 13.3806307773587392  4.7225755684795567 15.2800000000000047   T   T   T
 14.1677267054386675  7.0838633527193355 15.2800000000000047   T   T   T
 14.9548226335185923  9.4451511369591135 15.2800000000000047   T   T   T
 15.7419185615985224 11.8064389211988914 15.2800000000000047   T   T   T
 16.5290144896784454 14.1677267054386657 15.2800000000000047   T   T   T
 17.3161104177583738 16.5290144896784454 15.2800000000000047   T   T   T
 18.1032063458383021 18.8903022739182234 15.2800000000000047   T   T   T
 18.8903022739182234 21.2515900581579977 15.2800000000000047   T   T   T
 19.6773982019981482 23.6128778423977792 15.2800000000000047   T   T   T
 14.9548226335185923  1.5741918561598551 15.2800000000000047   T   T   T
 15.7419185615985153  3.9354796403996311 15.2800000000000047   T   T   T
 16.5290144896784454  6.2967674246394099 15.2800000000000047   T   T   T
 17.3161104177583738  8.6580552088791869 15.2800000000000047   T   T   T
 18.1032063458382986 11.0193429931189648 15.2800000000000047   T   T   T
  3.1483837123197054 13.3806307773587392 15.2800000000000047   T   T   T
  3.9354796403996359 15.7419185615985207 15.2800000000000047   T   T   T
  4.7225755684795576 18.1032063458382950 15.2800000000000047   T   T   T
  5.5096714965594806 20.4644941300780729 15.2800000000000047   T   T   T
  6.2967674246394081 22.8257819143178473 15.2800000000000047   T   T   T
  0.0000000000000000  0.0000000000000000 10.0000000000000036   F   F   F
  0.7870959280799265  2.3612877842397779 10.0000000000000036   F   F   F
  1.5741918561598529  4.7225755684795558 10.0000000000000036   F   F   F
  2.3612877842397779  7.0838633527193329 10.0000000000000036   F   F   F
  3.1483837123197058  9.4451511369591117 10.0000000000000036   F   F   F
  3.9354796403996319 11.8064389211988896 10.0000000000000036   F   F   F
  4.7225755684795558 14.1677267054386657 10.0000000000000036   F   F   F
  5.5096714965594815 16.5290144896784419 10.0000000000000036   F   F   F
  6.2967674246394116 18.8903022739182234 10.0000000000000036   F   F   F
  7.0838633527193373 21.2515900581580013 10.0000000000000036   F   F   F
  7.8709592807992639 23.6128778423977792 10.0000000000000036   F   F   F
  3.1483837123197036  1.5741918561598522 10.0000000000000036   F   F   F
  3.9354796403996302  3.9354796403996297 10.0000000000000036   F   F   F
  4.7225755684795567  6.2967674246394072 10.0000000000000036   F   F   F
  5.5096714965594824  8.6580552088791851 10.0000000000000036   F   F   F
  6.2967674246394090 11.0193429931189613 10.0000000000000036   F   F   F
  7.0838633527193338 13.3806307773587392 10.0000000000000036   F   F   F
  7.8709592807992621 15.7419185615985153 10.0000000000000036   F   F   F
  8.6580552088791869 18.1032063458382950 10.0000000000000036   F   F   F
  9.4451511369591135 20.4644941300780694 10.0000000000000036   F   F   F
 10.2322470650390436 22.8257819143178473 10.0000000000000036   F   F   F
  5.5096714965594806  0.7870959280799269 10.0000000000000036   F   F   F
  6.2967674246394072  3.1483837123197045 10.0000000000000036   F   F   F
  7.0838633527193338  5.5096714965594824 10.0000000000000036   F   F   F
  7.8709592807992603  7.8709592807992594 10.0000000000000036   F   F   F
  8.6580552088791851 10.2322470650390365 10.0000000000000036   F   F   F
  9.4451511369591135 12.5935348492788144 10.0000000000000036   F   F   F
 10.2322470650390400 14.9548226335185923 10.0000000000000036   F   F   F
 11.0193429931189648 17.3161104177583702 10.0000000000000036   F   F   F
 11.8064389211988896 19.6773982019981482 10.0000000000000036   F   F   F
 12.5935348492788179 22.0386859862379225 10.0000000000000036   F   F   F
  7.8709592807992577  0.0000000000000014 10.0000000000000036   F   F   F
  8.6580552088791851  2.3612877842397793 10.0000000000000036   F   F   F
  9.4451511369591117  4.7225755684795567 10.0000000000000036   F   F   F
 10.2322470650390365  7.0838633527193329 10.0000000000000036   F   F   F
 11.0193429931189630  9.4451511369591117 10.0000000000000036   F   F   F
 11.8064389211988914 11.8064389211988896 10.0000000000000036   F   F   F
 12.5935348492788144 14.1677267054386657 10.0000000000000036   F   F   F
 13.3806307773587410 16.5290144896784454 10.0000000000000036   F   F   F
 14.1677267054386711 18.8903022739182234 10.0000000000000036   F   F   F
 14.9548226335185976 21.2515900581580013 10.0000000000000036   F   F   F
 15.7419185615985242 23.6128778423977792 10.0000000000000036   F   F   F
 11.0193429931189613  1.5741918561598538 10.0000000000000036   F   F   F
 11.8064389211988860  3.9354796403996302 10.0000000000000036   F   F   F
 12.5935348492788144  6.2967674246394090 10.0000000000000036   F   F   F
 13.3806307773587427  8.6580552088791851 10.0000000000000036   F   F   F
 14.1677267054386675 11.0193429931189648 10.0000000000000036   F   F   F
 14.9548226335185941 13.3806307773587392 10.0000000000000036   F   F   F
 15.7419185615985207 15.7419185615985189 10.0000000000000036   F   F   F
 16.5290144896784454 18.1032063458382950 10.0000000000000036   F   F   F
 17.3161104177583702 20.4644941300780729 10.0000000000000036   F   F   F
 18.1032063458382986 22.8257819143178473 10.0000000000000036   F   F   F
 13.3806307773587410  0.7870959280799293 10.0000000000000036   F   F   F
 14.1677267054386657  3.1483837123197058 10.0000000000000036   F   F   F
 14.9548226335185923  5.5096714965594833 10.0000000000000036   F   F   F
 15.7419185615985207  7.8709592807992621 10.0000000000000036   F   F   F
 16.5290144896784454 10.2322470650390382 10.0000000000000036   F   F   F
 17.3161104177583667 12.5935348492788144 10.0000000000000036   F   F   F
 18.1032063458382950 14.9548226335185923 10.0000000000000036   F   F   F
 18.8903022739182234 17.3161104177583702 10.0000000000000036   F   F   F
 19.6773982019981517 19.6773982019981482 10.0000000000000036   F   F   F
 20.4644941300780729 22.0386859862379225 10.0000000000000036   F   F   F
  1.5741918561598518  0.7870959280799262 11.7600000000000051   F   F   F
  2.3612877842397784  3.1483837123197036 11.7600000000000051   F   F   F
  3.1483837123197045  5.5096714965594806 11.7600000000000051   F   F   F
  3.9354796403996311  7.8709592807992577 11.7600000000000051   F   F   F
  4.7225755684795576 10.2322470650390365 11.7600000000000051   F   F   F
  5.5096714965594824 12.5935348492788144 11.7600000000000051   F   F   F
  6.2967674246394107 14.9548226335185905 11.7600000000000051   F   F   F
  7.0838633527193338 17.3161104177583702 11.7600000000000051   F   F   F
  7.8709592807992639 19.6773982019981482 11.7600000000000051   F   F   F
  8.6580552088791887 22.0386859862379296 11.7600000000000051   F   F   F
  3.9354796403996333  0.0000000000000003 11.7600000000000051   F   F   F
  4.7225755684795558  2.3612877842397784 11.7600000000000051   F   F   F
  5.5096714965594815  4.7225755684795558 11.7600000000000051   F   F   F
  6.2967674246394090  7.0838633527193338 11.7600000000000051   F   F   F
  7.0838633527193355  9.4451511369591135 11.7600000000000051   F   F   F
  7.8709592807992639 11.8064389211988896 11.7600000000000051   F   F   F
  8.6580552088791869 14.1677267054386657 11.7600000000000051   F   F   F
  9.4451511369591135 16.5290144896784419 11.7600000000000051   F   F   F
 10.2322470650390400 18.8903022739182234 11.7600000000000051   F   F   F
 11.0193429931189666 21.2515900581579977 11.7600000000000051   F   F   F
 11.8064389211988932 23.6128778423977757 11.7600000000000051   F   F   F
  7.0838633527193329  1.5741918561598529 11.7600000000000051   F   F   F
  7.8709592807992603  3.9354796403996311 11.7600000000000051   F   F   F
  8.6580552088791869  6.2967674246394072 11.7600000000000051   F   F   F
  9.4451511369591117  8.6580552088791851 11.7600000000000051   F   F   F
 10.2322470650390365 11.0193429931189613 11.7600000000000051   F   F   F
 11.0193429931189648 13.3806307773587392 11.7600000000000051   F   F   F
 11.8064389211988896 15.7419185615985207 11.7600000000000051   F   F   F
 12.5935348492788215 18.1032063458382950 11.7600000000000051   F   F   F
 13.3806307773587392 20.4644941300780729 11.7600000000000051   F   F   F
 14.1677267054386711 22.8257819143178544 11.7600000000000051   F   F   F
  9.4451511369591099  0.7870959280799279 11.7600000000000051   F   F   F
 10.2322470650390365  3.1483837123197058 11.7600000000000051   F   F   F
 11.0193429931189648  5.5096714965594824 11.7600000000000051   F   F   F
 11.8064389211988896  7.8709592807992603 11.7600000000000051   F   F   F
 12.5935348492788179 10.2322470650390382 11.7600000000000051   F   F   F
 13.3806307773587427 12.5935348492788144 11.7600000000000051   F   F   F
 14.1677267054386675 14.9548226335185905 11.7600000000000051   F   F   F
 14.9548226335185941 17.3161104177583702 11.7600000000000051   F   F   F
 15.7419185615985242 19.6773982019981482 11.7600000000000051   F   F   F
 16.5290144896784490 22.0386859862379296 11.7600000000000051   F   F   F
 11.8064389211988914  0.0000000000000068 11.7600000000000051   F   F   F
 12.5935348492788126  2.3612877842397793 11.7600000000000051   F   F   F
 13.3806307773587392  4.7225755684795567 11.7600000000000051   F   F   F
 14.1677267054386675  7.0838633527193355 11.7600000000000051   F   F   F
 14.9548226335185923  9.4451511369591135 11.7600000000000051   F   F   F
 15.7419185615985224 11.8064389211988914 11.7600000000000051   F   F   F
 16.5290144896784454 14.1677267054386657 11.7600000000000051   F   F   F
 17.3161104177583738 16.5290144896784454 11.7600000000000051   F   F   F
 18.1032063458383021 18.8903022739182234 11.7600000000000051   F   F   F
 18.8903022739182234 21.2515900581579977 11.7600000000000051   F   F   F
 19.6773982019981482 23.6128778423977792 11.7600000000000051   F   F   F
 14.9548226335185923  1.5741918561598551 11.7600000000000051   F   F   F
 15.7419185615985153  3.9354796403996311 11.7600000000000051   F   F   F
 16.5290144896784454  6.2967674246394099 11.7600000000000051   F   F   F
 17.3161104177583738  8.6580552088791869 11.7600000000000051   F   F   F
 18.1032063458382986 11.0193429931189648 11.7600000000000051   F   F   F
  3.1483837123197054 13.3806307773587392 11.7600000000000051   F   F   F
  3.9354796403996359 15.7419185615985207 11.7600000000000051   F   F   F
  4.7225755684795576 18.1032063458382950 11.7600000000000051   F   F   F
  5.5096714965594806 20.4644941300780729 11.7600000000000051   F   F   F
  6.2967674246394081 22.8257819143178473 11.7600000000000051   F   F   F
  2.1963255959796943  0.7624991803274292 23.3906250000000036   T   T   T
  7.4436317831792005  0.7624991803274292 23.3906250000000036   T   T   T
 12.6909379703787053  0.7624991803274292 23.3906250000000036   T   T   T
  7.5092231105191942  6.8624926229468555 23.3906250000000036   T   T   T
 12.7565292977186981  6.8624926229468555 23.3906250000000036   T   T   T
  2.2619169233196885  6.8624926229468555 23.3906250000000036   T   T   T
  7.5748144378591888 12.9624860655662797 23.3906250000000036   T   T   T
 12.8221206250586928 12.9624860655662797 23.3906250000000036   T   T   T
 18.0694268122581967 12.9624860655662797 23.3906250000000036   T   T   T
  7.6404057651991817 19.0624795081857137 23.3906250000000036   T   T   T
 12.8877119523986856 19.0624795081857137 23.3906250000000036   T   T   T
 18.1350181395981913 19.0624795081857137 23.3906250000000071   T   T   T
  4.8691721850844427  5.3374942622920001 23.3906250000000036   T   T   T
 10.1164783722839484  5.3374942622920001 23.3906250000000036   T   T   T
 15.3637845594834559  5.3374942622920001 23.3906250000000036   T   T   T
 10.1820696996239413 11.4374877049114279 23.3906250000000036   T   T   T
 15.4293758868234487 11.4374877049114279 23.3906250000000036   T   T   T
  4.9347635124244391 11.4374877049114279 23.3906250000000036   T   T   T
 10.2476610269639377 17.5374811475308512 23.3906250000000036   T   T   T
 15.4949672141634434 17.5374811475308512 23.3906250000000071   T   T   T
  5.0003548397644320 17.5374811475308512 23.3906250000000036   T   T   T
 10.3132523543039341 23.6374745901502799 23.3906250000000071   T   T   T
 15.5605585415034362 23.6374745901502799 23.3906250000000071   T   T   T
 20.8078647287029455 23.6374745901502799 23.3906250000000071   T   T   T
  3.0837762548898096  2.2874975409822857 25.7548750000000020   T   T   T
  8.3310824420893166  2.2874975409822857 25.7548750000000020   T   T   T
 13.5783886292888241  2.2874975409822857 25.7548750000000020   T   T   T
  8.3966737694293094  8.3874909836017100 25.7548750000000020   T   T   T
 13.6439799566288187  8.3874909836017100 25.7548750000000020   T   T   T
  3.1493675822297997  8.3874909836017100 25.7548750000000020   T   T   T
  8.4622650967693041 14.4874844262211386 25.7548750000000020   T   T   T
 13.7095712839688133 14.4874844262211386 25.7548750000000020   T   T   T
 18.9568774711683155 14.4874844262211386 25.7548750000000055   T   T   T
  8.5278564241092987 20.5874778688405726 25.7548750000000020   T   T   T
 13.7751626113088044 20.5874778688405726 25.7548750000000055   T   T   T
 19.0224687985083065 20.5874778688405726 25.7548750000000055   T   T   T
  4.8363765214144427  2.2874975409822862 23.3906250000000036   T   T   T
 10.0836827086139493  2.2874975409822862 23.3906250000000036   T   T   T
 15.3309888958134586  2.2874975409822862 23.3906250000000036   T   T   T
 10.1492740359539457  8.3874909836017117 23.3906250000000036   T   T   T
 15.3965802231534514  8.3874909836017117 23.3906250000000036   T   T   T
  4.9019678487544383  8.3874909836017117 23.3906250000000036   T   T   T
 10.2148653632939386 14.4874844262211386 23.3906250000000036   T   T   T
 15.4621715504934443 14.4874844262211386 23.3906250000000036   T   T   T
  4.9675591760944329 14.4874844262211386 23.3906250000000036   T   T   T
 10.2804566906339332 20.5874778688405726 23.3906250000000036   T   T   T
 15.5277628778334424 20.5874778688405726 23.3906250000000071   T   T   T
  5.0331505034344266 20.5874778688405726 23.3906250000000036   T   T   T
  0.4437253294550584  0.7624991803274288 25.7548750000000020   T   T   T
  5.6910315166545633  0.7624991803274288 25.7548750000000020   T   T   T
 10.9383377038540690  0.7624991803274288 25.7548750000000020   T   T   T
  5.7566228439945570  6.8624926229468546 25.7548750000000020   T   T   T
 11.0039290311940636  6.8624926229468546 25.7548750000000020   T   T   T
 16.2512352183935711  6.8624926229468546 25.7548750000000020   T   T   T
  5.8222141713345517 12.9624860655662797 25.7548750000000020   T   T   T
 11.0695203585340582 12.9624860655662797 25.7548750000000020   T   T   T
 16.3168265457335586 12.9624860655662797 25.7548750000000020   T   T   T
  5.8878054986745454 19.0624795081857137 25.7548750000000020   T   T   T
 11.1351116858740511 19.0624795081857137 25.7548750000000020   T   T   T
 16.3824178730735568 19.0624795081857137 25.7548750000000055   T   T   T
  2.2291212596496921  3.8124959016371420 23.3906250000000036   T   T   T
  7.4764274468491978  3.8124959016371420 23.3906250000000036   T   T   T
 12.7237336340487026  3.8124959016371420 23.3906250000000036   T   T   T
  7.5420187741891933  9.9124893442565707 23.3906250000000036   T   T   T
 12.7893249613886972  9.9124893442565707 23.3906250000000036   T   T   T
  2.2947125869896881  9.9124893442565707 23.3906250000000036   T   T   T
  7.6076101015291862 16.0124827868759958 23.3906250000000036   T   T   T
 12.8549162887286919 16.0124827868759958 23.3906250000000036   T   T   T
 18.1022224759282047 16.0124827868759958 23.3906250000000071   T   T   T
  7.6732014288691790 22.1124762294954209 23.3906250000000036   T   T   T
 12.9205076160686847 22.1124762294954209 23.3906250000000071   T   T   T
 18.1678138032681922 22.1124762294954209 23.3906250000000071   T   T   T
 16.2184395547235738  3.8124959016371420 25.7548750000000020   T   T   T
  5.7238271803245606  3.8124959016371420 25.7548750000000020   T   T   T
 10.9711333675240663  3.8124959016371420 25.7548750000000020   T   T   T
  5.7894185076645552  9.9124893442565689 25.7548750000000020   T   T   T
 11.0367246948640609  9.9124893442565689 25.7548750000000020   T   T   T
 16.2840308820635684  9.9124893442565689 25.7548750000000020   T   T   T
  5.8550098350045499 16.0124827868759958 25.7548750000000020   T   T   T
 11.1023160222040538 16.0124827868759958 25.7548750000000020   T   T   T
 16.3496222094035630 16.0124827868759958 25.7548750000000055   T   T   T
  5.9206011623445418 22.1124762294954209 25.7548750000000020   T   T   T
 11.1679073495440484 22.1124762294954209 25.7548750000000020   T   T   T
 16.4152135367435541 22.1124762294954209 25.7548750000000055   T   T   T
  3.1165719185598069  5.3374942622920001 25.7548750000000020   T   T   T
  8.3638781057593103  5.3374942622920001 25.7548750000000020   T   T   T
 13.6111842929588196  5.3374942622920001 25.7548750000000020   T   T   T
  8.4294694330993050 11.4374877049114261 25.7548750000000020   T   T   T
 13.6767756202988124 11.4374877049114261 25.7548750000000020   T   T   T
  3.1821632458998002 11.4374877049114261 25.7548750000000020   T   T   T
  8.4950607604392978 17.5374811475308512 25.7548750000000020   T   T   T
 13.7423669476388071 17.5374811475308512 25.7548750000000020   T   T   T
 18.9896731348383128 17.5374811475308512 25.7548750000000055   T   T   T
  8.5606520877792942 23.6374745901502799 25.7548750000000020   T   T   T
 13.8079582749788017 23.6374745901502799 25.7548750000000055   T   T   T
 19.0552644621783038 23.6374745901502799 25.7548750000000055   T   T   T
  2.1963255959796939  0.7624991803274299 18.6621249999999996   T   T   T
  7.4436317831792005  0.7624991803274299 18.6621249999999996   T   T   T
 12.6909379703787053  0.7624991803274299 18.6621249999999996   T   T   T
  7.5092231105191942  6.8624926229468555 18.6621249999999996   T   T   T
 12.7565292977186981  6.8624926229468555 18.6621249999999996   T   T   T
  2.2619169233196881  6.8624926229468555 18.6621249999999996   T   T   T
  7.5748144378591906 12.9624860655662832 18.6621249999999996   T   T   T
 12.8221206250586910 12.9624860655662832 18.6621249999999996   T   T   T
 18.0694268122582002 12.9624860655662832 18.6621249999999996   T   T   T
  7.6404057651991835 19.0624795081857172 18.6621249999999996   T   T   T
 12.8877119523986838 19.0624795081857172 18.6621249999999996   T   T   T
 18.1350181395981949 19.0624795081857172 18.6621250000000032   T   T   T
  4.8691721850844436  5.3374942622920010 18.6621250000000067   T   T   T
 10.1164783722839484  5.3374942622920010 18.6621250000000067   T   T   T
 15.3637845594834577  5.3374942622920010 18.6621250000000067   T   T   T
 10.1820696996239466 11.4374877049114279 18.6621249999999996   T   T   T
 15.4293758868234505 11.4374877049114279 18.6621249999999996   T   T   T
  4.9347635124244391 11.4374877049114279 18.6621249999999996   T   T   T
 10.2476610269639394 17.5374811475308512 18.6621250000000032   T   T   T
 15.4949672141634434 17.5374811475308512 18.6621250000000067   T   T   T
  5.0003548397644337 17.5374811475308512 18.6621250000000032   T   T   T
 10.3132523543039341 23.6374745901502799 18.6621250000000032   T   T   T
 15.5605585415034362 23.6374745901502799 18.6621250000000032   T   T   T
 20.8078647287029455 23.6374745901502799 18.6621250000000032   T   T   T
  3.0837762548898100  2.2874975409822866 21.0263750000000051   T   T   T
  8.3310824420893148  2.2874975409822866 21.0263750000000051   T   T   T
 13.5783886292888241  2.2874975409822866 21.0263750000000051   T   T   T
  8.3966737694293077  8.3874909836017117 21.0263750000000051   T   T   T
 13.6439799566288187  8.3874909836017117 21.0263750000000051   T   T   T
  3.1493675822298006  8.3874909836017117 21.0263750000000051   T   T   T
  8.4622650967693005 14.4874844262211386 21.0263750000000051   T   T   T
 13.7095712839688098 14.4874844262211386 21.0263750000000051   T   T   T
 18.9568774711683119 14.4874844262211386 21.0263750000000087   T   T   T
  8.5278564241092951 20.5874778688405726 21.0263750000000051   T   T   T
 13.7751626113088044 20.5874778688405726 21.0263750000000087   T   T   T
 19.0224687985083065 20.5874778688405726 21.0263750000000087   T   T   T
  4.8363765214144454  2.2874975409822866 18.6621249999999996   T   T   T
 10.0836827086139493  2.2874975409822866 18.6621249999999996   T   T   T
 15.3309888958134568  2.2874975409822866 18.6621249999999996   T   T   T
 10.1492740359539440  8.3874909836017117 18.6621249999999996   T   T   T
 15.3965802231534497  8.3874909836017117 18.6621249999999996   T   T   T
  4.9019678487544383  8.3874909836017117 18.6621249999999996   T   T   T
 10.2148653632939386 14.4874844262211422 18.6621249999999996   T   T   T
 15.4621715504934460 14.4874844262211422 18.6621249999999996   T   T   T
  4.9675591760944346 14.4874844262211422 18.6621249999999996   T   T   T
 10.2804566906339296 20.5874778688405726 18.6621249999999996   T   T   T
 15.5277628778334424 20.5874778688405726 18.6621250000000032   T   T   T
  5.0331505034344275 20.5874778688405726 18.6621249999999996   T   T   T
  0.4437253294550587  0.7624991803274296 21.0263750000000051   T   T   T
  5.6910315166545642  0.7624991803274296 21.0263750000000051   T   T   T
 10.9383377038540708  0.7624991803274296 21.0263750000000051   T   T   T
  5.7566228439945579  6.8624926229468555 21.0263750000000051   T   T   T
 11.0039290311940636  6.8624926229468555 21.0263750000000051   T   T   T
 16.2512352183935711  6.8624926229468555 21.0263750000000051   T   T   T
  5.8222141713345525 12.9624860655662797 21.0263750000000051   T   T   T
 11.0695203585340565 12.9624860655662797 21.0263750000000051   T   T   T
 16.3168265457335586 12.9624860655662797 21.0263750000000051   T   T   T
  5.8878054986745463 19.0624795081857137 21.0263750000000051   T   T   T
 11.1351116858740511 19.0624795081857137 21.0263750000000051   T   T   T
 16.3824178730735532 19.0624795081857137 21.0263750000000087   T   T   T
  2.2291212596496921  3.8124959016371434 18.6621249999999996   T   T   T
  7.4764274468491987  3.8124959016371434 18.6621249999999996   T   T   T
 12.7237336340487026  3.8124959016371434 18.6621249999999996   T   T   T
  7.5420187741891933  9.9124893442565707 18.6621249999999996   T   T   T
 12.7893249613886972  9.9124893442565707 18.6621249999999996   T   T   T
  2.2947125869896876  9.9124893442565707 18.6621249999999996   T   T   T
  7.6076101015291879 16.0124827868759994 18.6621250000000067   T   T   T
 12.8549162887286901 16.0124827868759994 18.6621250000000067   T   T   T
 18.1022224759282011 16.0124827868759994 18.6621250000000103   T   T   T
  7.6732014288691790 22.1124762294954245 18.6621249999999996   T   T   T
 12.9205076160686847 22.1124762294954245 18.6621250000000032   T   T   T
 18.1678138032681922 22.1124762294954245 18.6621250000000032   T   T   T
 16.2184395547235738  3.8124959016371425 21.0263750000000051   T   T   T
  5.7238271803245615  3.8124959016371425 21.0263750000000051   T   T   T
 10.9711333675240681  3.8124959016371425 21.0263750000000051   T   T   T
  5.7894185076645561  9.9124893442565707 21.0263750000000051   T   T   T
 11.0367246948640627  9.9124893442565707 21.0263750000000051   T   T   T
 16.2840308820635684  9.9124893442565707 21.0263750000000051   T   T   T
  5.8550098350045490 16.0124827868759958 21.0263750000000087   T   T   T
 11.1023160222040556 16.0124827868759958 21.0263750000000087   T   T   T
 16.3496222094035595 16.0124827868759958 21.0263750000000122   T   T   T
  5.9206011623445418 22.1124762294954209 21.0263750000000051   T   T   T
 11.1679073495440484 22.1124762294954209 21.0263750000000051   T   T   T
 16.4152135367435541 22.1124762294954209 21.0263750000000087   T   T   T
  3.1165719185598073  5.3374942622920001 21.0263750000000087   T   T   T
  8.3638781057593103  5.3374942622920001 21.0263750000000087   T   T   T
 13.6111842929588196  5.3374942622920001 21.0263750000000087   T   T   T
  8.4294694330993050 11.4374877049114279 21.0263750000000051   T   T   T
 13.6767756202988124 11.4374877049114279 21.0263750000000051   T   T   T
  3.1821632458998006 11.4374877049114279 21.0263750000000051   T   T   T
  8.4950607604392978 17.5374811475308512 21.0263750000000051   T   T   T
 13.7423669476388071 17.5374811475308512 21.0263750000000051   T   T   T
 18.9896731348383128 17.5374811475308512 21.0263750000000087   T   T   T
  8.5606520877792924 23.6374745901502799 21.0263750000000051   T   T   T
 13.8079582749788017 23.6374745901502799 21.0263750000000087   T   T   T
 19.0552644621783074 23.6374745901502799 21.0263750000000087   T   T   T
  1.3364232945523749  2.2874975409822857 24.5727500000000028   T   T   T
  6.5837294817518783  2.2874975409822857 24.5727500000000028   T   T   T
 11.8310356689513885  2.2874975409822857 24.5727500000000028   T   T   T
  6.6493208090918721  8.3874909836017117 24.5727500000000028   T   T   T
 11.8966269962913831  8.3874909836017117 24.5727500000000028   T   T   T
 17.1439331834908941  8.3874909836017117 24.5727500000000028   T   T   T
  6.7149121364318693 14.4874844262211386 24.5727500000000028   T   T   T
 11.9622183236313742 14.4874844262211386 24.5727500000000028   T   T   T
 17.2095245108308887 14.4874844262211386 24.5727500000000028   T   T   T
  6.7805034637718649 20.5874778688405726 24.5727500000000028   T   T   T
 12.0278096509713706 20.5874778688405726 24.5727500000000028   T   T   T
 17.2751158381708763 20.5874778688405726 24.5727500000000063   T   T   T
  3.9764742199871264  3.8124959016371420 24.5727500000000028   T   T   T
  9.2237804071866325  3.8124959016371420 24.5727500000000028   T   T   T
 14.4710865943861382  3.8124959016371420 24.5727500000000028   T   T   T
  9.2893717345266253  9.9124893442565707 24.5727500000000028   T   T   T
 14.5366779217261310  9.9124893442565707 24.5727500000000028   T   T   T
  4.0420655473271205  9.9124893442565707 24.5727500000000028   T   T   T
  9.3549630618666217 16.0124827868759958 24.5727500000000028   T   T   T
 14.6022692490661257 16.0124827868759958 24.5727500000000028   T   T   T
  4.1076568746671116 16.0124827868759958 24.5727500000000028   T   T   T
  9.4205543892066146 22.1124762294954209 24.5727500000000028   T   T   T
 14.6678605764061203 22.1124762294954209 24.5727500000000063   T   T   T
 19.9151667636056260 22.1124762294954209 24.5727500000000063   T   T   T
  3.9436785563171299  0.7624991803274295 22.2085000000000043   T   T   T
  9.1909847435166334  0.7624991803274295 22.2085000000000043   T   T   T
 14.4382909307161391  0.7624991803274295 22.2085000000000043   T   T   T
  9.2565760708566298  6.8624926229468555 22.2085000000000043   T   T   T
 14.5038822580561337  6.8624926229468555 22.2085000000000043   T   T   T
  4.0092698836571241  6.8624926229468555 22.2085000000000043   T   T   T
  9.3221673981966209 12.9624860655662797 22.2085000000000043   T   T   T
 14.5694735853961266 12.9624860655662797 22.2085000000000043   T   T   T
  4.0748612109971143 12.9624860655662797 22.2085000000000043   T   T   T
  9.3877587255366173 19.0624795081857137 22.2085000000000043   T   T   T
 14.6350649127361230 19.0624795081857137 22.2085000000000079   T   T   T
 19.8823710999356251 19.0624795081857137 22.2085000000000079   T   T   T
  1.3692189582223717  5.3374942622920001 22.2085000000000043   T   T   T
  6.6165251454218765  5.3374942622920001 22.2085000000000043   T   T   T
 11.8638313326213840  5.3374942622920001 22.2085000000000043   T   T   T
  6.6821164727618712 11.4374877049114279 22.2085000000000043   T   T   T
 11.9294226599613769 11.4374877049114279 22.2085000000000043   T   T   T
 17.1767288471608879 11.4374877049114279 22.2085000000000043   T   T   T
  6.7477078001018658 17.5374811475308512 22.2085000000000043   T   T   T
 11.9950139873013715 17.5374811475308512 22.2085000000000043   T   T   T
 17.2423201745008789 17.5374811475308512 22.2085000000000079   T   T   T
  6.8132991274418604 23.6374745901502799 22.2085000000000043   T   T   T
 12.0606053146413679 23.6374745901502799 22.2085000000000079   T   T   T
 17.3079115018408771 23.6374745901502799 22.2085000000000079   T   T   T
  1.3364232945523753  2.2874975409822866 19.8442500000000024   T   T   T
  6.5837294817518810  2.2874975409822866 19.8442500000000024   T   T   T
 11.8310356689513885  2.2874975409822866 19.8442500000000024   T   T   T
  6.6493208090918756  8.3874909836017117 19.8442500000000024   T   T   T
 11.8966269962913813  8.3874909836017117 19.8442500000000024   T   T   T
 17.1439331834908870  8.3874909836017117 19.8442500000000024   T   T   T
  6.7149121364318711 14.4874844262211422 19.8442500000000024   T   T   T
 11.9622183236313742 14.4874844262211422 19.8442500000000024   T   T   T
 17.2095245108308852 14.4874844262211422 19.8442500000000024   T   T   T
  6.7805034637718649 20.5874778688405726 19.8442500000000024   T   T   T
 12.0278096509713706 20.5874778688405726 19.8442500000000024   T   T   T
 17.2751158381708763 20.5874778688405726 19.8442500000000059   T   T   T
  3.9764742199871268  3.8124959016371425 19.8442500000000024   T   T   T
  9.2237804071866325  3.8124959016371425 19.8442500000000024   T   T   T
 14.4710865943861382  3.8124959016371425 19.8442500000000024   T   T   T
  9.2893717345266253  9.9124893442565707 19.8442500000000024   T   T   T
 14.5366779217261310  9.9124893442565707 19.8442500000000024   T   T   T
  4.0420655473271196  9.9124893442565707 19.8442500000000024   T   T   T
  9.3549630618666217 16.0124827868759994 19.8442500000000059   T   T   T
 14.6022692490661257 16.0124827868759994 19.8442500000000059   T   T   T
  4.1076568746671116 16.0124827868759994 19.8442500000000059   T   T   T
  9.4205543892066146 22.1124762294954245 19.8442500000000024   T   T   T
 14.6678605764061167 22.1124762294954245 19.8442500000000059   T   T   T
 19.9151667636056224 22.1124762294954245 19.8442500000000059   T   T   T
  3.9436785563171299  0.7624991803274301 17.4800000000000040   T   T   T
  9.1909847435166352  0.7624991803274301 17.4800000000000040   T   T   T
 14.4382909307161409  0.7624991803274301 17.4800000000000040   T   T   T
  9.2565760708566316  6.8624926229468555 17.4800000000000040   T   T   T
 14.5038822580561337  6.8624926229468555 17.4800000000000040   T   T   T
  4.0092698836571241  6.8624926229468555 17.4800000000000040   T   T   T
  9.3221673981966227 12.9624860655662832 17.4800000000000040   T   T   T
 14.5694735853961266 12.9624860655662832 17.4800000000000040   T   T   T
  4.0748612109971152 12.9624860655662832 17.4800000000000040   T   T   T
  9.3877587255366173 19.0624795081857172 17.4800000000000040   T   T   T
 14.6350649127361230 19.0624795081857172 17.4800000000000075   T   T   T
 19.8823710999356251 19.0624795081857172 17.4800000000000075   T   T   T
  1.3692189582223719  5.3374942622920010 17.4800000000000075   T   T   T
  6.6165251454218774  5.3374942622920010 17.4800000000000075   T   T   T
 11.8638313326213840  5.3374942622920010 17.4800000000000075   T   T   T
  6.6821164727618729 11.4374877049114279 17.4800000000000040   T   T   T
 11.9294226599613769 11.4374877049114279 17.4800000000000040   T   T   T
 17.1767288471608843 11.4374877049114279 17.4800000000000040   T   T   T
  6.7477078001018675 17.5374811475308512 17.4800000000000040   T   T   T
 11.9950139873013715 17.5374811475308512 17.4800000000000040   T   T   T
 17.2423201745008789 17.5374811475308512 17.4800000000000075   T   T   T
  6.8132991274418622 23.6374745901502799 17.4800000000000040   T   T   T
 12.0606053146413661 23.6374745901502799 17.4800000000000075   T   T   T
 17.3079115018408736 23.6374745901502799 17.4800000000000075   T   T   T
