Mo Se Mo Se Mo Se Mo Se Mo Se Mo Se Mo Se Mo Se Mo Se
 1.0000000000000000
     9.9668999999999990    0.0000000000000000    0.0000000000000000
    -4.9834499999999995    8.6315885969791211    0.0000000000000000
     0.0000000000000000   -0.0000000000000000   23.3399999999999999
 Mo  Se  Mo  Se  Mo  Se  Mo  Se  Mo  Se  Mo  Se  Mo  Se  Mo  Se  Mo  Se 
   1   2   1   1   1   2   1   2   1   1   1   2   1   2   1   2   1   2
Selective dynamics
Cartesian
  0.0000000000000000  0.0000000000000000 11.6699999999999999   T   T   T
  1.6611499999999999  0.9590653996643468 13.3399999999999999   T   T   T
  1.6611499999999999  0.9590653996643468 10.0000000000000000   F   F   F
 -1.6611499999999999  2.8771961989930404 11.6699999999999999   T   T   T
  0.0000000000000000  3.8362615986573871 10.0000000000000000   F   F   F
 -3.3222999999999998  5.7543923979860807 11.6699999999999999   T   T   T
 -1.6611499999999999  6.7134577976504275 13.3399999999999999   T   T   T
 -1.6611499999999999  6.7134577976504275 10.0000000000000000   F   F   F
  3.3222999999999998  0.0000000000000000 11.6699999999999999   T   T   T
  4.9834499999999995  0.9590653996643468 13.3399999999999999   T   T   T
  4.9834499999999995  0.9590653996643468 10.0000000000000000   F   F   F
  1.6611499999999999  2.8771961989930404 11.6699999999999999   T   T   T
  3.3222999999999998  3.8362615986573871 10.0000000000000000   F   F   F
  0.0000000000000000  5.7543923979860807 11.6699999999999999   T   T   T
  1.6611499999999999  6.7134577976504275 13.3399999999999999   T   T   T
  1.6611499999999999  6.7134577976504275 10.0000000000000000   F   F   F
  6.6445999999999996  0.0000000000000000 11.6699999999999999   T   T   T
  8.3057499999999997  0.9590653996643468 13.3399999999999999   T   T   T
  8.3057499999999997  0.9590653996643468 10.0000000000000000   F   F   F
  4.9834499999999995  2.8771961989930404 11.6699999999999999   T   T   T
  6.6445999999999996  3.8362615986573871 13.3399999999999999   T   T   T
  6.6445999999999996  3.8362615986573871 10.0000000000000000   F   F   F
  3.3222999999999998  5.7543923979860807 11.6699999999999999   T   T   T
  4.9834499999999995  6.7134577976504275 13.3399999999999999   T   T   T
  4.9834499999999995  6.7134577976504275 10.0000000000000000   F   F   F
