Mo S  Mo S  Mo S  Mo S  Mo S  Mo S  Mo S  Mo S  Mo S 
 1.0000000000000000
     9.5766000000000009    0.0000000000000000    0.0000000000000000
    -4.7883000000000004    8.2935788818820555    0.0000000000000000
     0.0000000000000000   -0.0000000000000000   23.1900000000000013
 Mo  S   Mo  S   Mo  S   Mo  S   Mo  S   Mo  S   Mo  S   Mo  S   Mo  S  
   1   2   1   2   1   2   1   2   1   2   1   2   1   2   1   2   1   2
Selective dynamics
Cartesian
  0.0000000000000000  0.0000000000000000 11.5950000000000006   T   T   T
  1.5961000000000001  0.9215087646535617 13.1900000000000013   T   T   T
  1.5961000000000001  0.9215087646535617 10.0000000000000000   F   F   F
 -1.5961000000000001  2.7645262939606852 11.5950000000000006   T   T   T
  0.0000000000000000  3.6860350586142467 13.1900000000000013   T   T   T
  0.0000000000000000  3.6860350586142467 10.0000000000000000   F   F   F
 -3.1922000000000001  5.5290525879213703 11.5950000000000006   T   T   T
 -1.5961000000000001  6.4505613525749324 13.1900000000000013   T   T   T
 -1.5961000000000001  6.4505613525749324 10.0000000000000000   F   F   F
  3.1922000000000001  0.0000000000000000 11.5950000000000006   T   T   T
  4.7883000000000004  0.9215087646535617 13.1900000000000013   T   T   T
  4.7883000000000004  0.9215087646535617 10.0000000000000000   F   F   F
  1.5961000000000001  2.7645262939606852 11.5950000000000006   T   T   T
  3.1922000000000001  3.6860350586142467 13.1900000000000013   T   T   T
  3.1922000000000001  3.6860350586142467 10.0000000000000000   F   F   F
  0.0000000000000000  5.5290525879213703 11.5950000000000006   T   T   T
  1.5961000000000001  6.4505613525749324 13.1900000000000013   T   T   T
  1.5961000000000001  6.4505613525749324 10.0000000000000000   F   F   F
  6.3844000000000003  0.0000000000000000 11.5950000000000006   T   T   T
  7.9805000000000001  0.9215087646535617 13.1900000000000013   T   T   T
  7.9805000000000001  0.9215087646535617 10.0000000000000000   F   F   F
  4.7883000000000004  2.7645262939606852 11.5950000000000006   T   T   T
  6.3844000000000003  3.6860350586142467 13.1900000000000013   T   T   T
  6.3844000000000003  3.6860350586142467 10.0000000000000000   F   F   F
  3.1922000000000001  5.5290525879213703 11.5950000000000006   T   T   T
  4.7883000000000004  6.4505613525749324 13.1900000000000013   T   T   T
  4.7883000000000004  6.4505613525749324 10.0000000000000000   F   F   F
