B  Mo B  Mo B  Mo B  Mo B  Mo B  Mo B  Mo B  Mo B  Mo B  Mo B  Mo B  Mo B  Mo B  Mo B  Mo B  Mo B 
 1.0000000000000000
    57.0775000000000077    0.0000000000000000    0.0000000000000035
     0.0000000000000010    6.2100000000000000    0.0000000000000004
     0.0000000000000000    0.0000000000000000   66.2823599999999828
 B   Mo  B   Mo  B   Mo  B   Mo  B   Mo  B   Mo  B   Mo  B   Mo  B   Mo  B   Mo  B   Mo  B   Mo  B   Mo  B   Mo  B   Mo  B   Mo  B  
  32   8   8   8   8   8   8   8   8   8   8   8   8   8   8   8   8   8   8   8   8   8   8   8   8   8   8   8   8   8   8   8  40
Selective dynamics
Cartesian
 21.5524999999999984  0.0000000000000000 22.9252399999999952   F   F   F
 21.5525000000000020  1.5525000000000000 18.6827399999999955   F   F   F
 20.0000000000000000  0.0000000000000000 22.1446199999999962   F   F   F
 21.5524999999999984  0.0000000000000000 17.9021199999999965   F   F   F
 20.0000000000000000  1.5525000000000000 31.4102399999999946   F   F   F
 20.0000000000000000  1.5525000000000000 26.3871199999999959   F   F   F
 21.5525000000000020  1.5525000000000000 30.6296199999999956   F   F   F
 20.0000000000000000  0.0000000000000000 27.1677399999999949   F   F   F
 21.5524999999999984  0.0000000000000000 39.8952399999999869   T   T   T
 21.5525000000000020  1.5525000000000000 35.6527399999999943   T   T   T
 20.0000000000000000  0.0000000000000000 39.1146199999999880   T   T   T
 21.5524999999999984  0.0000000000000000 34.8721199999999953   T   T   T
 20.0000000000000000  1.5525000000000000 48.3802399999999864   T   T   T
 20.0000000000000000  1.5525000000000000 43.3571199999999948   T   T   T
 21.5525000000000020  1.5525000000000000 47.5996199999999874   T   T   T
 20.0000000000000000  0.0000000000000000 44.1377399999999938   T   T   T
 21.5525000000000020  3.1050000000000000 22.9252399999999952   F   F   F
 21.5525000000000020  4.6574999999999998 18.6827399999999955   F   F   F
 20.0000000000000000  3.1050000000000000 22.1446199999999962   F   F   F
 21.5525000000000020  3.1050000000000000 17.9021199999999965   F   F   F
 20.0000000000000000  4.6574999999999998 31.4102399999999946   F   F   F
 20.0000000000000000  4.6574999999999998 26.3871199999999959   F   F   F
 21.5525000000000020  4.6574999999999998 30.6296199999999956   F   F   F
 20.0000000000000000  3.1050000000000000 27.1677399999999949   F   F   F
 21.5525000000000020  3.1050000000000000 39.8952399999999869   T   T   T
 21.5525000000000020  4.6574999999999998 35.6527399999999943   T   T   T
 20.0000000000000000  3.1050000000000000 39.1146199999999880   T   T   T
 21.5525000000000020  3.1050000000000000 34.8721199999999953   T   T   T
 20.0000000000000000  4.6574999999999998 48.3802399999999864   T   T   T
 20.0000000000000000  4.6574999999999998 43.3571199999999948   T   T   T
 21.5525000000000020  4.6574999999999998 47.5996199999999874   T   T   T
 20.0000000000000000  3.1050000000000000 44.1377399999999938   T   T   T
 24.6574999999999989  0.0000000000000000 25.5555899999999951   F   F   F
 24.6574999999999989  1.5525000000000000 21.3130899999999954   F   F   F
 23.1050000000000004  0.0000000000000000 19.5142699999999962   F   F   F
 24.6574999999999989  0.0000000000000000 32.2417699999999883   F   F   F
 23.1050000000000004  1.5525000000000000 17.0705899999999957   F   F   F
 23.1050000000000004  1.5525000000000000 23.7567699999999959   F   F   F
 24.6574999999999989  1.5525000000000000 27.9992699999999957   F   F   F
 23.1050000000000004  0.0000000000000000 29.7980899999999949   F   F   F
 24.6574999999999989  0.0000000000000000 22.9252399999999952   F   F   F
 24.6574999999999989  1.5525000000000000 18.6827399999999955   F   F   F
 23.1050000000000004  0.0000000000000000 22.1446199999999962   F   F   F
 24.6574999999999989  0.0000000000000000 17.9021199999999965   F   F   F
 23.1050000000000004  1.5525000000000000 31.4102399999999946   F   F   F
 23.1050000000000004  1.5525000000000000 26.3871199999999959   F   F   F
 24.6574999999999989  1.5525000000000000 30.6296199999999956   F   F   F
 23.1050000000000004  0.0000000000000000 27.1677399999999949   F   F   F
 24.6574999999999989  0.0000000000000000 42.5255899999999940   T   T   T
 24.6574999999999989  1.5525000000000000 38.2830899999999872   T   T   T
 23.1050000000000004  0.0000000000000000 36.4842699999999951   T   T   T
 24.6574999999999989  0.0000000000000000 49.2117699999999871   T   T   T
 23.1050000000000004  1.5525000000000000 34.0405899999999946   T   T   T
 23.1050000000000004  1.5525000000000000 40.7267699999999877   T   T   T
 24.6574999999999989  1.5525000000000000 44.9692699999999874   T   T   T
 23.1050000000000004  0.0000000000000000 46.7680899999999866   T   T   T
 24.6574999999999989  0.0000000000000000 39.8952399999999869   T   T   T
 24.6574999999999989  1.5525000000000000 35.6527399999999943   T   T   T
 23.1050000000000004  0.0000000000000000 39.1146199999999880   T   T   T
 24.6574999999999989  0.0000000000000000 34.8721199999999953   T   T   T
 23.1050000000000004  1.5525000000000000 48.3802399999999864   T   T   T
 23.1050000000000004  1.5525000000000000 43.3571199999999948   T   T   T
 24.6574999999999989  1.5525000000000000 47.5996199999999874   T   T   T
 23.1050000000000004  0.0000000000000000 44.1377399999999938   T   T   T
 24.6574999999999989  3.1050000000000000 25.5555899999999951   F   F   F
 24.6574999999999989  4.6574999999999998 21.3130899999999954   F   F   F
 23.1050000000000004  3.1050000000000000 19.5142699999999962   F   F   F
 24.6574999999999989  3.1050000000000000 32.2417699999999883   F   F   F
 23.1050000000000004  4.6574999999999998 17.0705899999999957   F   F   F
 23.1050000000000004  4.6574999999999998 23.7567699999999959   F   F   F
 24.6574999999999989  4.6574999999999998 27.9992699999999957   F   F   F
 23.1050000000000004  3.1050000000000000 29.7980899999999949   F   F   F
 24.6574999999999989  3.1050000000000000 22.9252399999999952   F   F   F
 24.6574999999999989  4.6574999999999998 18.6827399999999955   F   F   F
 23.1050000000000004  3.1050000000000000 22.1446199999999962   F   F   F
 24.6574999999999989  3.1050000000000000 17.9021199999999965   F   F   F
 23.1050000000000004  4.6574999999999998 31.4102399999999946   F   F   F
 23.1050000000000004  4.6574999999999998 26.3871199999999959   F   F   F
 24.6574999999999989  4.6574999999999998 30.6296199999999956   F   F   F
 23.1050000000000004  3.1050000000000000 27.1677399999999949   F   F   F
 24.6574999999999989  3.1050000000000000 42.5255899999999940   T   T   T
 24.6574999999999989  4.6574999999999998 38.2830899999999872   T   T   T
 23.1050000000000004  3.1050000000000000 36.4842699999999951   T   T   T
 24.6574999999999989  3.1050000000000000 49.2117699999999871   T   T   T
 23.1050000000000004  4.6574999999999998 34.0405899999999946   T   T   T
 23.1050000000000004  4.6574999999999998 40.7267699999999877   T   T   T
 24.6574999999999989  4.6574999999999998 44.9692699999999874   T   T   T
 23.1050000000000004  3.1050000000000000 46.7680899999999866   T   T   T
 24.6574999999999989  3.1050000000000000 39.8952399999999869   T   T   T
 24.6574999999999989  4.6574999999999998 35.6527399999999943   T   T   T
 23.1050000000000004  3.1050000000000000 39.1146199999999880   T   T   T
 24.6574999999999989  3.1050000000000000 34.8721199999999953   T   T   T
 23.1050000000000004  4.6574999999999998 48.3802399999999864   T   T   T
 23.1050000000000004  4.6574999999999998 43.3571199999999948   T   T   T
 24.6574999999999989  4.6574999999999998 47.5996199999999874   T   T   T
 23.1050000000000004  3.1050000000000000 44.1377399999999938   T   T   T
 27.7624999999999993  0.0000000000000000 25.5555899999999951   F   F   F
 27.7624999999999993  1.5525000000000000 21.3130899999999954   F   F   F
 26.2100000000000009  0.0000000000000000 19.5142699999999962   F   F   F
 27.7624999999999993  0.0000000000000000 32.2417699999999883   F   F   F
 26.2100000000000009  1.5525000000000000 17.0705899999999957   F   F   F
 26.2100000000000009  1.5525000000000000 23.7567699999999959   F   F   F
 27.7624999999999993  1.5525000000000000 27.9992699999999957   F   F   F
 26.2100000000000009  0.0000000000000000 29.7980899999999949   F   F   F
 27.7624999999999993  0.0000000000000000 22.9252399999999952   F   F   F
 27.7624999999999993  1.5525000000000000 18.6827399999999955   F   F   F
 26.2100000000000009  0.0000000000000000 22.1446199999999962   F   F   F
 27.7624999999999993  0.0000000000000000 17.9021199999999965   F   F   F
 26.2100000000000009  1.5525000000000000 31.4102399999999946   F   F   F
 26.2100000000000009  1.5525000000000000 26.3871199999999959   F   F   F
 27.7624999999999993  1.5525000000000000 30.6296199999999956   F   F   F
 26.2100000000000009  0.0000000000000000 27.1677399999999949   F   F   F
 27.7624999999999993  0.0000000000000000 42.5255899999999940   T   T   T
 27.7624999999999993  1.5525000000000000 38.2830899999999872   T   T   T
 26.2100000000000009  0.0000000000000000 36.4842699999999951   T   T   T
 27.7624999999999993  0.0000000000000000 49.2117699999999871   T   T   T
 26.2100000000000009  1.5525000000000000 34.0405899999999946   T   T   T
 26.2100000000000009  1.5525000000000000 40.7267699999999877   T   T   T
 27.7624999999999993  1.5525000000000000 44.9692699999999874   T   T   T
 26.2100000000000009  0.0000000000000000 46.7680899999999866   T   T   T
 27.7624999999999993  0.0000000000000000 39.8952399999999869   T   T   T
 27.7624999999999993  1.5525000000000000 35.6527399999999943   T   T   T
 26.2100000000000009  0.0000000000000000 39.1146199999999880   T   T   T
 27.7624999999999993  0.0000000000000000 34.8721199999999953   T   T   T
 26.2100000000000009  1.5525000000000000 48.3802399999999864   T   T   T
 26.2100000000000009  1.5525000000000000 43.3571199999999948   T   T   T
 27.7624999999999993  1.5525000000000000 47.5996199999999874   T   T   T
 26.2100000000000009  0.0000000000000000 44.1377399999999938   T   T   T
 27.7625000000000028  3.1050000000000000 25.5555899999999951   F   F   F
 27.7625000000000028  4.6574999999999998 21.3130899999999954   F   F   F
 26.2100000000000009  3.1050000000000000 19.5142699999999962   F   F   F
 27.7625000000000028  3.1050000000000000 32.2417699999999883   F   F   F
 26.2100000000000009  4.6574999999999998 17.0705899999999957   F   F   F
 26.2100000000000009  4.6574999999999998 23.7567699999999959   F   F   F
 27.7625000000000028  4.6574999999999998 27.9992699999999957   F   F   F
 26.2100000000000009  3.1050000000000000 29.7980899999999949   F   F   F
 27.7625000000000028  3.1050000000000000 22.9252399999999952   F   F   F
 27.7625000000000028  4.6574999999999998 18.6827399999999955   F   F   F
 26.2100000000000009  3.1050000000000000 22.1446199999999962   F   F   F
 27.7625000000000028  3.1050000000000000 17.9021199999999965   F   F   F
 26.2100000000000009  4.6574999999999998 31.4102399999999946   F   F   F
 26.2100000000000009  4.6574999999999998 26.3871199999999959   F   F   F
 27.7625000000000028  4.6574999999999998 30.6296199999999956   F   F   F
 26.2100000000000009  3.1050000000000000 27.1677399999999949   F   F   F
 27.7625000000000028  3.1050000000000000 42.5255899999999940   T   T   T
 27.7625000000000028  4.6574999999999998 38.2830899999999872   T   T   T
 26.2100000000000009  3.1050000000000000 36.4842699999999951   T   T   T
 27.7625000000000028  3.1050000000000000 49.2117699999999871   T   T   T
 26.2100000000000009  4.6574999999999998 34.0405899999999946   T   T   T
 26.2100000000000009  4.6574999999999998 40.7267699999999877   T   T   T
 27.7625000000000028  4.6574999999999998 44.9692699999999874   T   T   T
 26.2100000000000009  3.1050000000000000 46.7680899999999866   T   T   T
 27.7625000000000028  3.1050000000000000 39.8952399999999869   T   T   T
 27.7625000000000028  4.6574999999999998 35.6527399999999943   T   T   T
 26.2100000000000009  3.1050000000000000 39.1146199999999880   T   T   T
 27.7625000000000028  3.1050000000000000 34.8721199999999953   T   T   T
 26.2100000000000009  4.6574999999999998 48.3802399999999864   T   T   T
 26.2100000000000009  4.6574999999999998 43.3571199999999948   T   T   T
 27.7625000000000028  4.6574999999999998 47.5996199999999874   T   T   T
 26.2100000000000009  3.1050000000000000 44.1377399999999938   T   T   T
 30.8674999999999997  0.0000000000000000 25.5555899999999951   F   F   F
 30.8674999999999997  1.5525000000000000 21.3130899999999954   F   F   F
 29.3149999999999977  0.0000000000000000 19.5142699999999962   F   F   F
 30.8674999999999997  0.0000000000000000 32.2417699999999883   F   F   F
 29.3149999999999977  1.5525000000000000 17.0705899999999957   F   F   F
 29.3149999999999977  1.5525000000000000 23.7567699999999959   F   F   F
 30.8674999999999997  1.5525000000000000 27.9992699999999957   F   F   F
 29.3149999999999977  0.0000000000000000 29.7980899999999949   F   F   F
 30.8674999999999997  0.0000000000000000 22.9252399999999952   F   F   F
 30.8674999999999997  1.5525000000000000 18.6827399999999955   F   F   F
 29.3149999999999977  0.0000000000000000 22.1446199999999962   F   F   F
 30.8674999999999997  0.0000000000000000 17.9021199999999965   F   F   F
 29.3149999999999977  1.5525000000000000 31.4102399999999946   F   F   F
 29.3149999999999977  1.5525000000000000 26.3871199999999959   F   F   F
 30.8674999999999997  1.5525000000000000 30.6296199999999956   F   F   F
 29.3149999999999977  0.0000000000000000 27.1677399999999949   F   F   F
 30.8674999999999997  0.0000000000000000 42.5255899999999940   T   T   T
 30.8674999999999997  1.5525000000000000 38.2830899999999872   T   T   T
 29.3149999999999977  0.0000000000000000 36.4842699999999951   T   T   T
 30.8674999999999997  0.0000000000000000 49.2117699999999871   T   T   T
 29.3149999999999977  1.5525000000000000 34.0405899999999946   T   T   T
 29.3149999999999977  1.5525000000000000 40.7267699999999877   T   T   T
 30.8674999999999997  1.5525000000000000 44.9692699999999874   T   T   T
 29.3149999999999977  0.0000000000000000 46.7680899999999866   T   T   T
 30.8674999999999997  0.0000000000000000 39.8952399999999869   T   T   T
 30.8674999999999997  1.5525000000000000 35.6527399999999943   T   T   T
 29.3149999999999977  0.0000000000000000 39.1146199999999880   T   T   T
 30.8674999999999997  0.0000000000000000 34.8721199999999953   T   T   T
 29.3149999999999977  1.5525000000000000 48.3802399999999864   T   T   T
 29.3149999999999977  1.5525000000000000 43.3571199999999948   T   T   T
 30.8674999999999997  1.5525000000000000 47.5996199999999874   T   T   T
 29.3149999999999977  0.0000000000000000 44.1377399999999938   T   T   T
 30.8674999999999997  3.1050000000000000 25.5555899999999951   F   F   F
 30.8674999999999997  4.6574999999999998 21.3130899999999954   F   F   F
 29.3149999999999977  3.1050000000000000 19.5142699999999962   F   F   F
 30.8674999999999997  3.1050000000000000 32.2417699999999883   F   F   F
 29.3149999999999977  4.6574999999999998 17.0705899999999957   F   F   F
 29.3149999999999977  4.6574999999999998 23.7567699999999959   F   F   F
 30.8674999999999997  4.6574999999999998 27.9992699999999957   F   F   F
 29.3149999999999977  3.1050000000000000 29.7980899999999949   F   F   F
 30.8674999999999997  3.1050000000000000 22.9252399999999952   F   F   F
 30.8674999999999997  4.6574999999999998 18.6827399999999955   F   F   F
 29.3149999999999977  3.1050000000000000 22.1446199999999962   F   F   F
 30.8674999999999997  3.1050000000000000 17.9021199999999965   F   F   F
 29.3149999999999977  4.6574999999999998 31.4102399999999946   F   F   F
 29.3149999999999977  4.6574999999999998 26.3871199999999959   F   F   F
 30.8674999999999997  4.6574999999999998 30.6296199999999956   F   F   F
 29.3149999999999977  3.1050000000000000 27.1677399999999949   F   F   F
 30.8674999999999997  3.1050000000000000 42.5255899999999940   T   T   T
 30.8674999999999997  4.6574999999999998 38.2830899999999872   T   T   T
 29.3149999999999977  3.1050000000000000 36.4842699999999951   T   T   T
 30.8674999999999997  3.1050000000000000 49.2117699999999871   T   T   T
 29.3149999999999977  4.6574999999999998 34.0405899999999946   T   T   T
 29.3149999999999977  4.6574999999999998 40.7267699999999877   T   T   T
 30.8674999999999997  4.6574999999999998 44.9692699999999874   T   T   T
 29.3149999999999977  3.1050000000000000 46.7680899999999866   T   T   T
 30.8674999999999997  3.1050000000000000 39.8952399999999869   T   T   T
 30.8674999999999997  4.6574999999999998 35.6527399999999943   T   T   T
 29.3149999999999977  3.1050000000000000 39.1146199999999880   T   T   T
 30.8674999999999997  3.1050000000000000 34.8721199999999953   T   T   T
 29.3149999999999977  4.6574999999999998 48.3802399999999864   T   T   T
 29.3149999999999977  4.6574999999999998 43.3571199999999948   T   T   T
 30.8674999999999997  4.6574999999999998 47.5996199999999874   T   T   T
 29.3149999999999977  3.1050000000000000 44.1377399999999938   T   T   T
 33.9724999999999966  0.0000000000000000 25.5555899999999951   F   F   F
 33.9724999999999966  1.5525000000000000 21.3130899999999954   F   F   F
 32.4200000000000017  0.0000000000000000 19.5142699999999962   F   F   F
 33.9724999999999966  0.0000000000000000 32.2417699999999883   F   F   F
 32.4200000000000017  1.5525000000000000 17.0705899999999957   F   F   F
 32.4200000000000017  1.5525000000000000 23.7567699999999959   F   F   F
 33.9724999999999966  1.5525000000000000 27.9992699999999957   F   F   F
 32.4200000000000017  0.0000000000000000 29.7980899999999949   F   F   F
 33.9724999999999966  0.0000000000000000 22.9252399999999952   F   F   F
 33.9724999999999966  1.5525000000000000 18.6827399999999955   F   F   F
 32.4200000000000017  0.0000000000000000 22.1446199999999962   F   F   F
 33.9724999999999966  0.0000000000000000 17.9021199999999965   F   F   F
 32.4200000000000017  1.5525000000000000 31.4102399999999946   F   F   F
 32.4200000000000017  1.5525000000000000 26.3871199999999959   F   F   F
 33.9724999999999966  1.5525000000000000 30.6296199999999956   F   F   F
 32.4200000000000017  0.0000000000000000 27.1677399999999949   F   F   F
 33.9724999999999966  0.0000000000000000 42.5255899999999940   T   T   T
 33.9724999999999966  1.5525000000000000 38.2830899999999872   T   T   T
 32.4200000000000017  0.0000000000000000 36.4842699999999951   T   T   T
 33.9724999999999966  0.0000000000000000 49.2117699999999871   T   T   T
 32.4200000000000017  1.5525000000000000 34.0405899999999946   T   T   T
 32.4200000000000017  1.5525000000000000 40.7267699999999877   T   T   T
 33.9724999999999966  1.5525000000000000 44.9692699999999874   T   T   T
 32.4200000000000017  0.0000000000000000 46.7680899999999866   T   T   T
 33.9724999999999966  0.0000000000000000 39.8952399999999869   T   T   T
 33.9724999999999966  1.5525000000000000 35.6527399999999943   T   T   T
 32.4200000000000017  0.0000000000000000 39.1146199999999880   T   T   T
 33.9724999999999966  0.0000000000000000 34.8721199999999953   T   T   T
 32.4200000000000017  1.5525000000000000 48.3802399999999864   T   T   T
 32.4200000000000017  1.5525000000000000 43.3571199999999948   T   T   T
 33.9724999999999966  1.5525000000000000 47.5996199999999874   T   T   T
 32.4200000000000017  0.0000000000000000 44.1377399999999938   T   T   T
 33.9724999999999966  3.1050000000000000 25.5555899999999951   F   F   F
 33.9724999999999966  4.6574999999999998 21.3130899999999954   F   F   F
 32.4200000000000017  3.1050000000000000 19.5142699999999962   F   F   F
 33.9724999999999966  3.1050000000000000 32.2417699999999883   F   F   F
 32.4200000000000017  4.6574999999999998 17.0705899999999957   F   F   F
 32.4200000000000017  4.6574999999999998 23.7567699999999959   F   F   F
 33.9724999999999966  4.6574999999999998 27.9992699999999957   F   F   F
 32.4200000000000017  3.1050000000000000 29.7980899999999949   F   F   F
 33.9724999999999966  3.1050000000000000 22.9252399999999952   F   F   F
 33.9724999999999966  4.6574999999999998 18.6827399999999955   F   F   F
 32.4200000000000017  3.1050000000000000 22.1446199999999962   F   F   F
 33.9724999999999966  3.1050000000000000 17.9021199999999965   F   F   F
 32.4200000000000017  4.6574999999999998 31.4102399999999946   F   F   F
 32.4200000000000017  4.6574999999999998 26.3871199999999959   F   F   F
 33.9724999999999966  4.6574999999999998 30.6296199999999956   F   F   F
 32.4200000000000017  3.1050000000000000 27.1677399999999949   F   F   F
 33.9724999999999966  3.1050000000000000 42.5255899999999940   T   T   T
 33.9724999999999966  4.6574999999999998 38.2830899999999872   T   T   T
 32.4200000000000017  3.1050000000000000 36.4842699999999951   T   T   T
 33.9724999999999966  3.1050000000000000 49.2117699999999871   T   T   T
 32.4200000000000017  4.6574999999999998 34.0405899999999946   T   T   T
 32.4200000000000017  4.6574999999999998 40.7267699999999877   T   T   T
 33.9724999999999966  4.6574999999999998 44.9692699999999874   T   T   T
 32.4200000000000017  3.1050000000000000 46.7680899999999866   T   T   T
 33.9724999999999966  3.1050000000000000 39.8952399999999869   T   T   T
 33.9724999999999966  4.6574999999999998 35.6527399999999943   T   T   T
 32.4200000000000017  3.1050000000000000 39.1146199999999880   T   T   T
 33.9724999999999966  3.1050000000000000 34.8721199999999953   T   T   T
 32.4200000000000017  4.6574999999999998 48.3802399999999864   T   T   T
 32.4200000000000017  4.6574999999999998 43.3571199999999948   T   T   T
 33.9724999999999966  4.6574999999999998 47.5996199999999874   T   T   T
 32.4200000000000017  3.1050000000000000 44.1377399999999938   T   T   T
 37.0775000000000006  0.0000000000000000 22.9252399999999952   F   F   F
 37.0775000000000006  1.5525000000000000 18.6827399999999955   F   F   F
 35.5249999999999986  0.0000000000000000 22.1446199999999962   F   F   F
 37.0775000000000006  0.0000000000000000 17.9021199999999965   F   F   F
 35.5249999999999986  1.5525000000000000 31.4102399999999946   F   F   F
 35.5249999999999986  1.5525000000000000 26.3871199999999959   F   F   F
 37.0775000000000006  1.5525000000000000 30.6296199999999956   F   F   F
 35.5249999999999986  0.0000000000000000 27.1677399999999949   F   F   F
 37.0775000000000006  0.0000000000000000 39.8952399999999869   T   T   T
 37.0775000000000006  1.5525000000000000 35.6527399999999943   T   T   T
 35.5249999999999986  0.0000000000000000 39.1146199999999880   T   T   T
 37.0775000000000006  0.0000000000000000 34.8721199999999953   T   T   T
 35.5249999999999986  1.5525000000000000 48.3802399999999864   T   T   T
 35.5249999999999986  1.5525000000000000 43.3571199999999948   T   T   T
 37.0775000000000006  1.5525000000000000 47.5996199999999874   T   T   T
 35.5249999999999986  0.0000000000000000 44.1377399999999938   T   T   T
 37.0775000000000006  3.1050000000000000 22.9252399999999952   F   F   F
 37.0775000000000006  4.6574999999999998 18.6827399999999955   F   F   F
 35.5249999999999986  3.1050000000000000 22.1446199999999962   F   F   F
 37.0775000000000006  3.1050000000000000 17.9021199999999965   F   F   F
 35.5249999999999986  4.6574999999999998 31.4102399999999946   F   F   F
 35.5249999999999986  4.6574999999999998 26.3871199999999959   F   F   F
 37.0775000000000006  4.6574999999999998 30.6296199999999956   F   F   F
 35.5249999999999986  3.1050000000000000 27.1677399999999949   F   F   F
 37.0775000000000006  3.1050000000000000 39.8952399999999869   T   T   T
 37.0775000000000006  4.6574999999999998 35.6527399999999943   T   T   T
 35.5249999999999986  3.1050000000000000 39.1146199999999880   T   T   T
 37.0775000000000006  3.1050000000000000 34.8721199999999953   T   T   T
 35.5249999999999986  4.6574999999999998 48.3802399999999864   T   T   T
 35.5249999999999986  4.6574999999999998 43.3571199999999948   T   T   T
 37.0775000000000006  4.6574999999999998 47.5996199999999874   T   T   T
 35.5249999999999986  3.1050000000000000 44.1377399999999938   T   T   T
