Ti Ni C  O  Pt
 1.0000000000000000
    21.2661609135264449    0.0000000000000000    0.0000000000000013
    10.6330804567632278   18.4170355920815823    0.0000000000000013
     0.0000000000000000    0.0000000000000000   55.2968188426424661
 Ti  Ni  C   O   Pt 
 288 292 192 192   2
Selective dynamics
Cartesian
  8.8609003806360231 12.2780237280543876 51.4083010717629350   T   T   T
 11.5191704948268274 13.8127766940611849 51.4083010717629350   T   T   T
 14.1774406090176335 15.3475296600679822 51.4083010717629350   T   T   T
  6.2026302664452144  7.6737648300339929 51.4083010717629350   T   T   T
  8.8609003806360196  9.2085177960407893 51.4083010717629350   T   T   T
 11.5191704948268274 10.7432707620475885 51.4083010717629350   T   T   T
 14.1774406090176335 12.2780237280543876 51.4083010717629350   T   T   T
 16.8357107232084360 13.8127766940611849 51.4083010717629350   T   T   T
 19.4939808373992420 15.3475296600679822 51.4083010717629350   T   T   T
  3.5443601522544075  3.0695059320135973 51.4083010717629350   T   T   T
  6.2026302664452153  4.6042588980203956 51.4083010717629350   T   T   T
  8.8609003806360178  6.1390118640271938 51.4083010717629350   T   T   T
 11.5191704948268239  7.6737648300339929 51.4083010717629350   T   T   T
 14.1774406090176335  9.2085177960407893 51.4083010717629350   T   T   T
 16.8357107232084360 10.7432707620475885 51.4083010717629350   T   T   T
 19.4939808373992420 12.2780237280543876 51.4083010717629350   T   T   T
 22.1522509515900481 13.8127766940611849 51.4083010717629350   T   T   T
 24.8105210657808612 15.3475296600679822 51.4083010717629350   T   T   T
 11.5191704948268292 16.8822826260747796 51.4083010717629350   T   T   T
  3.5443601522544075  0.0000000000000000 51.4083010717629350   T   T   T
  6.2026302664452135  1.5347529660067984 51.4083010717629350   T   T   T
  8.8609003806360214  3.0695059320135973 51.4083010717629350   T   T   T
 11.5191704948268274  4.6042588980203956 51.4083010717629350   T   T   T
 14.1774406090176317  6.1390118640271938 51.4083010717629350   T   T   T
 16.8357107232084360  7.6737648300339929 51.4083010717629350   T   T   T
 19.4939808373992456  9.2085177960407893 51.4083010717629350   T   T   T
 22.1522509515900516 10.7432707620475885 51.4083010717629350   T   T   T
 24.8105210657808577 12.2780237280543876 51.4083010717629350   T   T   T
 27.4687911799716602 13.8127766940611849 51.4083010717629350   T   T   T
  8.8609003806360267 15.3475296600679822 51.4083010717629350   T   T   T
 16.8357107232084395 16.8822826260747796 51.4083010717629350   T   T   T
  8.8609003806360196  0.0000000000000000 51.4083010717629350   T   T   T
 11.5191704948268239  1.5347529660067984 51.4083010717629350   T   T   T
 14.1774406090176317  3.0695059320135973 51.4083010717629350   T   T   T
 16.8357107232084324  4.6042588980203956 51.4083010717629350   T   T   T
 19.4939808373992420  6.1390118640271938 51.4083010717629350   T   T   T
 22.1522509515900516  7.6737648300339929 51.4083010717629350   T   T   T
 24.8105210657808541  9.2085177960407893 51.4083010717629350   T   T   T
 27.4687911799716531 10.7432707620475885 51.4083010717629350   T   T   T
 22.1522509515900552 16.8822826260747796 51.4083010717629350   T   T   T
 14.1774406090176335  0.0000000000000000 51.4083010717629350   T   T   T
 16.8357107232084360  1.5347529660067984 51.4083010717629350   T   T   T
 19.4939808373992420  3.0695059320135973 51.4083010717629350   T   T   T
 22.1522509515900445  4.6042588980203956 51.4083010717629350   T   T   T
  3.5443601522544093  6.1390118640271938 51.4083010717629350   T   T   T
 27.4687911799716566 16.8822826260747796 51.4083010717629350   T   T   T
 19.4939808373992420  0.0000000000000000 51.4083010717629350   T   T   T
 22.1522509515900445  1.5347529660067980 51.4083010717629350   T   T   T
  9.7469904186996246 13.8127766940611867 49.4083010717629421   T   T   T
 12.4052605328904306 15.3475296600679840 49.4083010717629421   T   T   T
 15.0635306470812367 16.8822826260747796 49.4083010717629421   T   T   T
  7.0887203045088159  9.2085177960407911 49.4083010717629421   T   T   T
  9.7469904186996228 10.7432707620475885 49.4083010717629421   T   T   T
 12.4052605328904306 12.2780237280543876 49.4083010717629421   T   T   T
 15.0635306470812331 13.8127766940611867 49.4083010717629421   T   T   T
 17.7218007612720356 15.3475296600679840 49.4083010717629421   T   T   T
 20.3800708754628488 16.8822826260747796 49.4083010717629421   T   T   T
  4.4304501903180098  4.6042588980203956 49.4083010717629421   T   T   T
  7.0887203045088150  6.1390118640271938 49.4083010717629421   T   T   T
  9.7469904186996228  7.6737648300339920 49.4083010717629421   T   T   T
 12.4052605328904306  9.2085177960407911 49.4083010717629421   T   T   T
 15.0635306470812331 10.7432707620475885 49.4083010717629421   T   T   T
 17.7218007612720356 12.2780237280543876 49.4083010717629421   T   T   T
 20.3800708754628417 13.8127766940611867 49.4083010717629421   T   T   T
 23.0383409896536548 15.3475296600679840 49.4083010717629421   T   T   T
 25.6966111038444573 16.8822826260747796 49.4083010717629421   T   T   T
  1.7721800761272037  0.0000000000000000 49.4083010717629421   T   T   T
  4.4304501903180107  1.5347529660067984 49.4083010717629421   T   T   T
  7.0887203045088159  3.0695059320135969 49.4083010717629421   T   T   T
  9.7469904186996210  4.6042588980203956 49.4083010717629421   T   T   T
 12.4052605328904288  6.1390118640271938 49.4083010717629421   T   T   T
 15.0635306470812331  7.6737648300339920 49.4083010717629421   T   T   T
 17.7218007612720427  9.2085177960407911 49.4083010717629421   T   T   T
 20.3800708754628452 10.7432707620475885 49.4083010717629421   T   T   T
 23.0383409896536548 12.2780237280543876 49.4083010717629421   T   T   T
 25.6966111038444573 13.8127766940611867 49.4083010717629421   T   T   T
 28.3548812180352598 15.3475296600679840 49.4083010717629421   T   T   T
  9.7469904186996299 16.8822826260747796 49.4083010717629421   T   T   T
  7.0887203045088150  0.0000000000000000 49.4083010717629421   T   T   T
  9.7469904186996210  1.5347529660067984 49.4083010717629421   T   T   T
 12.4052605328904253  3.0695059320135969 49.4083010717629421   T   T   T
 15.0635306470812331  4.6042588980203956 49.4083010717629421   T   T   T
 17.7218007612720356  6.1390118640271938 49.4083010717629421   T   T   T
 20.3800708754628452  7.6737648300339920 49.4083010717629421   T   T   T
 23.0383409896536548  9.2085177960407911 49.4083010717629421   T   T   T
 25.6966111038444573 10.7432707620475885 49.4083010717629421   T   T   T
  7.0887203045088185 12.2780237280543876 49.4083010717629421   T   T   T
 12.4052605328904271  0.0000000000000000 49.4083010717629421   T   T   T
 15.0635306470812331  1.5347529660067984 49.4083010717629421   T   T   T
 17.7218007612720356  3.0695059320135969 49.4083010717629421   T   T   T
 20.3800708754628381  4.6042588980203956 49.4083010717629421   T   T   T
 23.0383409896536513  6.1390118640271938 49.4083010717629421   T   T   T
  4.4304501903180107  7.6737648300339920 49.4083010717629421   T   T   T
 17.7218007612720392  0.0000000000000000 49.4083010717629421   T   T   T
 20.3800708754628452  1.5347529660067980 49.4083010717629421   T   T   T
  1.7721800761272042  3.0695059320135964 49.4083010717629421   T   T   T
  7.9748103425724208 13.8127766940611867 47.4083010717629350   T   T   T
 10.6330804567632242 15.3475296600679840 47.4083010717629350   T   T   T
 13.2913505709540303 16.8822826260747796 47.4083010717629350   T   T   T
  5.3165402283816139  9.2085177960407911 47.4083010717629350   T   T   T
  7.9748103425724182 10.7432707620475885 47.4083010717629350   T   T   T
 10.6330804567632242 12.2780237280543876 47.4083010717629350   T   T   T
 13.2913505709540303 13.8127766940611867 47.4083010717629350   T   T   T
 15.9496206851448363 15.3475296600679840 47.4083010717629350   T   T   T
 18.6078907993356424 16.8822826260747796 47.4083010717629350   T   T   T
  2.6582701141908069  4.6042588980203956 47.4083010717629350   T   T   T
  5.3165402283816121  6.1390118640271938 47.4083010717629350   T   T   T
  7.9748103425724182  7.6737648300339920 47.4083010717629350   T   T   T
 10.6330804567632224  9.2085177960407911 47.4083010717629350   T   T   T
 13.2913505709540285 10.7432707620475885 47.4083010717629350   T   T   T
 15.9496206851448381 12.2780237280543876 47.4083010717629350   T   T   T
 18.6078907993356424 13.8127766940611867 47.4083010717629350   T   T   T
 21.2661609135264449 15.3475296600679840 47.4083010717629350   T   T   T
 23.9244310277172545 16.8822826260747796 47.4083010717629350   T   T   T
  0.0000000000000000  0.0000000000000000 47.4083010717629350   T   T   T
  2.6582701141908061  1.5347529660067984 47.4083010717629350   T   T   T
  5.3165402283816121  3.0695059320135969 47.4083010717629350   T   T   T
  7.9748103425724182  4.6042588980203956 47.4083010717629350   T   T   T
 10.6330804567632242  6.1390118640271938 47.4083010717629350   T   T   T
 13.2913505709540267  7.6737648300339920 47.4083010717629350   T   T   T
 15.9496206851448363  9.2085177960407911 47.4083010717629350   T   T   T
 18.6078907993356424 10.7432707620475885 47.4083010717629350   T   T   T
 21.2661609135264484 12.2780237280543876 47.4083010717629350   T   T   T
 23.9244310277172545 13.8127766940611867 47.4083010717629350   T   T   T
 26.5827011419080534 15.3475296600679840 47.4083010717629350   T   T   T
 29.2409712560988737 16.8822826260747796 47.4083010717629350   T   T   T
  5.3165402283816112  0.0000000000000000 47.4083010717629350   T   T   T
  7.9748103425724173  1.5347529660067984 47.4083010717629350   T   T   T
 10.6330804567632207  3.0695059320135969 47.4083010717629350   T   T   T
 13.2913505709540303  4.6042588980203956 47.4083010717629350   T   T   T
 15.9496206851448346  6.1390118640271938 47.4083010717629350   T   T   T
 18.6078907993356388  7.6737648300339920 47.4083010717629350   T   T   T
 21.2661609135264484  9.2085177960407911 47.4083010717629350   T   T   T
 23.9244310277172474 10.7432707620475885 47.4083010717629350   T   T   T
 26.5827011419080570 12.2780237280543876 47.4083010717629350   T   T   T
 10.6330804567632224  0.0000000000000000 47.4083010717629350   T   T   T
 13.2913505709540338  1.5347529660067984 47.4083010717629350   T   T   T
 15.9496206851448346  3.0695059320135969 47.4083010717629350   T   T   T
 18.6078907993356388  4.6042588980203956 47.4083010717629350   T   T   T
 21.2661609135264413  6.1390118640271938 47.4083010717629350   T   T   T
 23.9244310277172545  7.6737648300339920 47.4083010717629350   T   T   T
 15.9496206851448328  0.0000000000000000 47.4083010717629350   T   T   T
 18.6078907993356388  1.5347529660067980 47.4083010717629350   T   T   T
 21.2661609135264413  3.0695059320135964 47.4083010717629350   T   T   T
  8.8609003806360231 12.2780237280543876 31.4083010717629207   T   T   T
 11.5191704948268274 13.8127766940611849 31.4083010717629207   T   T   T
 14.1774406090176335 15.3475296600679822 31.4083010717629207   T   T   T
  6.2026302664452144  7.6737648300339929 31.4083010717629207   T   T   T
  8.8609003806360196  9.2085177960407893 31.4083010717629207   T   T   T
 11.5191704948268274 10.7432707620475885 31.4083010717629207   T   T   T
 14.1774406090176335 12.2780237280543876 31.4083010717629207   T   T   T
 16.8357107232084360 13.8127766940611849 31.4083010717629207   T   T   T
 19.4939808373992420 15.3475296600679822 31.4083010717629207   T   T   T
  3.5443601522544075  3.0695059320135973 31.4083010717629207   T   T   T
  6.2026302664452153  4.6042588980203956 31.4083010717629207   T   T   T
  8.8609003806360178  6.1390118640271938 31.4083010717629207   T   T   T
 11.5191704948268239  7.6737648300339929 31.4083010717629207   T   T   T
 14.1774406090176335  9.2085177960407893 31.4083010717629207   T   T   T
 16.8357107232084360 10.7432707620475885 31.4083010717629207   T   T   T
 19.4939808373992420 12.2780237280543876 31.4083010717629207   T   T   T
 22.1522509515900481 13.8127766940611849 31.4083010717629243   T   T   T
 24.8105210657808612 15.3475296600679822 31.4083010717629243   T   T   T
 11.5191704948268292 16.8822826260747796 31.4083010717629207   T   T   T
  3.5443601522544075  0.0000000000000000 31.4083010717629207   T   T   T
  6.2026302664452135  1.5347529660067984 31.4083010717629207   T   T   T
  8.8609003806360214  3.0695059320135973 31.4083010717629207   T   T   T
 11.5191704948268274  4.6042588980203956 31.4083010717629207   T   T   T
 14.1774406090176317  6.1390118640271938 31.4083010717629207   T   T   T
 16.8357107232084360  7.6737648300339929 31.4083010717629207   T   T   T
 19.4939808373992456  9.2085177960407893 31.4083010717629207   T   T   T
 22.1522509515900516 10.7432707620475885 31.4083010717629207   T   T   T
 24.8105210657808577 12.2780237280543876 31.4083010717629243   T   T   T
 27.4687911799716602 13.8127766940611849 31.4083010717629243   T   T   T
  8.8609003806360267 15.3475296600679822 31.4083010717629207   T   T   T
 16.8357107232084395 16.8822826260747796 31.4083010717629207   T   T   T
  8.8609003806360196  0.0000000000000000 31.4083010717629207   T   T   T
 11.5191704948268239  1.5347529660067984 31.4083010717629207   T   T   T
 14.1774406090176317  3.0695059320135973 31.4083010717629207   T   T   T
 16.8357107232084324  4.6042588980203956 31.4083010717629207   T   T   T
 19.4939808373992420  6.1390118640271938 31.4083010717629207   T   T   T
 22.1522509515900516  7.6737648300339929 31.4083010717629207   T   T   T
 24.8105210657808541  9.2085177960407893 31.4083010717629243   T   T   T
 27.4687911799716531 10.7432707620475885 31.4083010717629243   T   T   T
 22.1522509515900552 16.8822826260747796 31.4083010717629243   T   T   T
 14.1774406090176335  0.0000000000000000 31.4083010717629207   T   T   T
 16.8357107232084360  1.5347529660067984 31.4083010717629207   T   T   T
 19.4939808373992420  3.0695059320135973 31.4083010717629207   T   T   T
 22.1522509515900445  4.6042588980203956 31.4083010717629207   T   T   T
  3.5443601522544093  6.1390118640271938 31.4083010717629207   T   T   T
 27.4687911799716566 16.8822826260747796 31.4083010717629243   T   T   T
 19.4939808373992420  0.0000000000000000 31.4083010717629207   T   T   T
 22.1522509515900445  1.5347529660067980 31.4083010717629207   T   T   T
  9.7469904186996246 13.8127766940611867 29.4083010717629278   T   T   T
 12.4052605328904306 15.3475296600679840 29.4083010717629278   T   T   T
 15.0635306470812367 16.8822826260747796 29.4083010717629278   T   T   T
  7.0887203045088159  9.2085177960407911 29.4083010717629278   T   T   T
  9.7469904186996228 10.7432707620475885 29.4083010717629278   T   T   T
 12.4052605328904306 12.2780237280543876 29.4083010717629278   T   T   T
 15.0635306470812331 13.8127766940611867 29.4083010717629278   T   T   T
 17.7218007612720356 15.3475296600679840 29.4083010717629278   T   T   T
 20.3800708754628488 16.8822826260747796 29.4083010717629314   T   T   T
  4.4304501903180098  4.6042588980203956 29.4083010717629278   T   T   T
  7.0887203045088150  6.1390118640271938 29.4083010717629278   T   T   T
  9.7469904186996228  7.6737648300339920 29.4083010717629278   T   T   T
 12.4052605328904306  9.2085177960407911 29.4083010717629278   T   T   T
 15.0635306470812331 10.7432707620475885 29.4083010717629278   T   T   T
 17.7218007612720356 12.2780237280543876 29.4083010717629278   T   T   T
 20.3800708754628417 13.8127766940611867 29.4083010717629278   T   T   T
 23.0383409896536548 15.3475296600679840 29.4083010717629314   T   T   T
 25.6966111038444573 16.8822826260747796 29.4083010717629314   T   T   T
  1.7721800761272037  0.0000000000000000 29.4083010717629278   T   T   T
  4.4304501903180107  1.5347529660067984 29.4083010717629278   T   T   T
  7.0887203045088159  3.0695059320135969 29.4083010717629278   T   T   T
  9.7469904186996210  4.6042588980203956 29.4083010717629278   T   T   T
 12.4052605328904288  6.1390118640271938 29.4083010717629278   T   T   T
 15.0635306470812331  7.6737648300339920 29.4083010717629278   T   T   T
 17.7218007612720427  9.2085177960407911 29.4083010717629278   T   T   T
 20.3800708754628452 10.7432707620475885 29.4083010717629278   T   T   T
 23.0383409896536548 12.2780237280543876 29.4083010717629314   T   T   T
 25.6966111038444573 13.8127766940611867 29.4083010717629314   T   T   T
 28.3548812180352598 15.3475296600679840 29.4083010717629314   T   T   T
  9.7469904186996299 16.8822826260747796 29.4083010717629278   T   T   T
  7.0887203045088150  0.0000000000000000 29.4083010717629278   T   T   T
  9.7469904186996210  1.5347529660067984 29.4083010717629278   T   T   T
 12.4052605328904253  3.0695059320135969 29.4083010717629278   T   T   T
 15.0635306470812331  4.6042588980203956 29.4083010717629278   T   T   T
 17.7218007612720356  6.1390118640271938 29.4083010717629278   T   T   T
 20.3800708754628452  7.6737648300339920 29.4083010717629278   T   T   T
 23.0383409896536548  9.2085177960407911 29.4083010717629278   T   T   T
 25.6966111038444573 10.7432707620475885 29.4083010717629314   T   T   T
  7.0887203045088185 12.2780237280543876 29.4083010717629278   T   T   T
 12.4052605328904271  0.0000000000000000 29.4083010717629278   T   T   T
 15.0635306470812331  1.5347529660067984 29.4083010717629278   T   T   T
 17.7218007612720356  3.0695059320135969 29.4083010717629278   T   T   T
 20.3800708754628381  4.6042588980203956 29.4083010717629278   T   T   T
 23.0383409896536513  6.1390118640271938 29.4083010717629278   T   T   T
  4.4304501903180107  7.6737648300339920 29.4083010717629278   T   T   T
 17.7218007612720392  0.0000000000000000 29.4083010717629278   T   T   T
 20.3800708754628452  1.5347529660067980 29.4083010717629278   T   T   T
  1.7721800761272042  3.0695059320135964 29.4083010717629278   T   T   T
  7.9748103425724208 13.8127766940611867 27.4083010717629385   T   T   T
 10.6330804567632242 15.3475296600679840 27.4083010717629385   T   T   T
 13.2913505709540303 16.8822826260747796 27.4083010717629385   T   T   T
  5.3165402283816139  9.2085177960407911 27.4083010717629385   T   T   T
  7.9748103425724182 10.7432707620475885 27.4083010717629385   T   T   T
 10.6330804567632242 12.2780237280543876 27.4083010717629385   T   T   T
 13.2913505709540303 13.8127766940611867 27.4083010717629385   T   T   T
 15.9496206851448363 15.3475296600679840 27.4083010717629385   T   T   T
 18.6078907993356424 16.8822826260747796 27.4083010717629385   T   T   T
  2.6582701141908069  4.6042588980203956 27.4083010717629385   T   T   T
  5.3165402283816121  6.1390118640271938 27.4083010717629385   T   T   T
  7.9748103425724182  7.6737648300339920 27.4083010717629385   T   T   T
 10.6330804567632224  9.2085177960407911 27.4083010717629385   T   T   T
 13.2913505709540285 10.7432707620475885 27.4083010717629385   T   T   T
 15.9496206851448381 12.2780237280543876 27.4083010717629385   T   T   T
 18.6078907993356424 13.8127766940611867 27.4083010717629385   T   T   T
 21.2661609135264449 15.3475296600679840 27.4083010717629421   T   T   T
 23.9244310277172545 16.8822826260747796 27.4083010717629421   T   T   T
  0.0000000000000000  0.0000000000000000 27.4083010717629385   T   T   T
  2.6582701141908061  1.5347529660067984 27.4083010717629385   T   T   T
  5.3165402283816121  3.0695059320135969 27.4083010717629385   T   T   T
  7.9748103425724182  4.6042588980203956 27.4083010717629385   T   T   T
 10.6330804567632242  6.1390118640271938 27.4083010717629385   T   T   T
 13.2913505709540267  7.6737648300339920 27.4083010717629385   T   T   T
 15.9496206851448363  9.2085177960407911 27.4083010717629385   T   T   T
 18.6078907993356424 10.7432707620475885 27.4083010717629385   T   T   T
 21.2661609135264484 12.2780237280543876 27.4083010717629385   T   T   T
 23.9244310277172545 13.8127766940611867 27.4083010717629421   T   T   T
 26.5827011419080534 15.3475296600679840 27.4083010717629421   T   T   T
 29.2409712560988737 16.8822826260747796 27.4083010717629421   T   T   T
  5.3165402283816112  0.0000000000000000 27.4083010717629385   T   T   T
  7.9748103425724173  1.5347529660067984 27.4083010717629385   T   T   T
 10.6330804567632207  3.0695059320135969 27.4083010717629385   T   T   T
 13.2913505709540303  4.6042588980203956 27.4083010717629385   T   T   T
 15.9496206851448346  6.1390118640271938 27.4083010717629385   T   T   T
 18.6078907993356388  7.6737648300339920 27.4083010717629385   T   T   T
 21.2661609135264484  9.2085177960407911 27.4083010717629385   T   T   T
 23.9244310277172474 10.7432707620475885 27.4083010717629421   T   T   T
 26.5827011419080570 12.2780237280543876 27.4083010717629421   T   T   T
 10.6330804567632224  0.0000000000000000 27.4083010717629385   T   T   T
 13.2913505709540338  1.5347529660067984 27.4083010717629385   T   T   T
 15.9496206851448346  3.0695059320135969 27.4083010717629385   T   T   T
 18.6078907993356388  4.6042588980203956 27.4083010717629385   T   T   T
 21.2661609135264413  6.1390118640271938 27.4083010717629385   T   T   T
 23.9244310277172545  7.6737648300339920 27.4083010717629385   T   T   T
 15.9496206851448328  0.0000000000000000 27.4083010717629385   T   T   T
 18.6078907993356388  1.5347529660067980 27.4083010717629385   T   T   T
 21.2661609135264413  3.0695059320135964 27.4083010717629385   T   T   T
 22.5770886410725957 -0.5886723705231546  4.1114822291204858   F   F   F
 23.5966990958307186  1.6819210586375883  4.1114822291204858   F   F   F
 24.6163095505888379  3.9525144877983327  4.1114822291204876   F   F   F
 25.6359200053469500  6.2231079169590755  4.1114822291204840   F   F   F
 26.6555304601050693  8.4937013461198170  4.1114822291204876   F   F   F
 27.6751409148631886 10.7642947752805629  4.1114822291204840   F   F   F
 28.6947513696213043 13.0348882044413070  4.1114822291204822   F   F   F
 29.7143618243794236 15.3054816336020458  4.1114822291204831   F   F   F
 20.1008918223743116 -0.8409605293187926  4.1114822291204831   F   F   F
 21.1205022771324309  1.4296328998419512  4.1114822291204840   F   F   F
 22.1401127318905466  3.7002263290026942  4.1114822291204840   F   F   F
 23.1597231866486659  5.9708197581634384  4.1114822291204822   F   F   F
 24.1793336414067888  8.2414131873241843  4.1114822291204840   F   F   F
 25.1989440961649009 10.5120066164849284  4.1114822291204858   F   F   F
 26.2185545509230131 12.7826000456456672  4.1114822291204822   F   F   F
 27.2381650056811431 15.0531934748064131  4.1114822291204822   F   F   F
 17.6246950036760310 -1.0932486881144308  4.1114822291204840   F   F   F
 18.6443054584341432  1.1773447410463127  4.1114822291204831   F   F   F
 19.6639159131922625  3.4479381702070566  4.1114822291204849   F   F   F
 20.6835263679503782  5.7185315993677985  4.1114822291204822   F   F   F
 21.7031368227084975  7.9891250285285453  4.1114822291204813   F   F   F
 22.7227472774666168 10.2597184576892886  4.1114822291204813   F   F   F
 23.7423577322247290 12.5303118868500292  4.1114822291204840   F   F   F
 24.7619681869828554 14.8009053160107733  4.1114822291204822   F   F   F
 15.1484981849777469 -1.3455368469100684  4.1114822291204840   F   F   F
 16.1681086397358591  0.9250565822506751  4.1114822291204840   F   F   F
 17.1877190944939784  3.1956500114114190  4.1114822291204840   F   F   F
 18.2073295492520941  5.4662434405721596  4.1114822291204831   F   F   F
 19.2269400040102134  7.7368368697329037  4.1114822291204840   F   F   F
 20.2465504587683256 10.0074302988936452  4.1114822291204858   F   F   F
 21.2661609135264449 12.2780237280543894  4.1114822291204840   F   F   F
 22.2857713682845677 14.5486171572151335  4.1114822291204876   F   F   F
 12.6723013662794592 -1.5978250057057075  4.1114822291204831   F   F   F
 13.6919118210375768  0.6727684234550360  4.1114822291204849   F   F   F
 14.7115222757956960  2.9433618526157814  4.1114822291204831   F   F   F
 15.7311327305538118  5.2139552817765225  4.1114822291204822   F   F   F
 16.7507431853119293  7.4845487109372666  4.1114822291204849   F   F   F
 17.7703536400700486  9.7551421400980090  4.1114822291204840   F   F   F
 18.7899640948281643 12.0257355692587531  4.1114822291204858   F   F   F
 19.8095745495862836 14.2963289984194990  4.1114822291204796   F   F   F
 10.1961045475811716 -1.8501131645013458  4.1114822291204831   F   F   F
 11.2157150023392891  0.4204802646593958  4.1114822291204858   F   F   F
 12.2353254570974102  2.6910736938201403  4.1114822291204849   F   F   F
 13.2549359118555241  4.9616671229808853  4.1114822291204822   F   F   F
 14.2745463666136452  7.2322605521416268  4.1114822291204849   F   F   F
 15.2941568213717627  9.5028539813023727  4.1114822291204831   F   F   F
 16.3137672761298802 11.7734474104631150  4.1114822291204822   F   F   F
 17.3333777308879995 14.0440408396238574  4.1114822291204840   F   F   F
  7.7199077288828919 -2.1024013232969843  4.1114822291204831   F   F   F
  8.7395181836410067  0.1681921058637592  4.1114822291204831   F   F   F
  9.7591286383991225  2.4387855350245031  4.1114822291204831   F   F   F
 10.7787390931572418  4.7093789641852464  4.1114822291204831   F   F   F
 11.7983495479153611  6.9799723933459896  4.1114822291204858   F   F   F
 12.8179600026734750  9.2505658225067346  4.1114822291204822   F   F   F
 13.8375704574315961 11.5211592516674770  4.1114822291204831   F   F   F
 14.8571809121897136 13.7917526808282176  4.1114822291204840   F   F   F
  5.2437109101846024 -2.3546894820926223  4.1114822291204822   F   F   F
  6.2633213649427208 -0.0840960529318791  4.1114822291204822   F   F   F
  7.2829318197008401  2.1864973762288633  4.1114822291204831   F   F   F
  8.3025422744589559  4.4570908053896083  4.1114822291204831   F   F   F
  9.3221527292170734  6.7276842345503516  4.1114822291204822   F   F   F
 10.3417631839751909  8.9982776637110948  4.1114822291204840   F   F   F
 11.3613736387333084 11.2688710928718372  4.1114822291204831   F   F   F
 12.3809840934914277 13.5394645220325813  4.1114822291204831   F   F   F
  2.7675140914863170 -2.6069776408882603  4.1114822291204822   F   F   F
  3.7871245462444363 -0.3363842117275177  4.1114822291204831   F   F   F
  4.8067350010025534  1.9342092174332264  4.1114822291204831   F   F   F
  5.8263454557606700  4.2048026465939685  4.1114822291204831   F   F   F
  6.8459559105187893  6.4753960757547135  4.1114822291204831   F   F   F
  7.8655663652769086  8.7459895049154568  4.1114822291204813   F   F   F
  8.8851768200350225 11.0165829340761974  4.1114822291204840   F   F   F
  9.9047872747931418 13.2871763632369415  4.1114822291204831   F   F   F
  0.2913172727880329 -2.8592657996838988  4.1114822291204822   F   F   F
 22.7227472774666097 -2.0183052703651039  6.1437551766679670   F   F   F
 23.7423577322247326  0.2522881587956360  6.1437551766679706   F   F   F
 24.7619681869828518  2.5228815879563808  6.1437551766679697   F   F   F
 25.7815786417409711  4.7934750171171228  6.1437551766679706   F   F   F
 26.8011890964990869  7.0640684462778678  6.1437551766679723   F   F   F
 27.8207995512572097  9.3346618754386164  6.1437551766679661   F   F   F
 28.8404100060153183 11.6052553045993552  6.1437551766679643   F   F   F
 29.8600204607734341 13.8758487337600993  6.1437551766679670   F   F   F
 20.2465504587683292 -2.2705934291607424  6.1437551766679688   F   F   F
 21.2661609135264484  0.0000000000000000  6.1437551766679679   F   F   F
 22.2857713682845642  2.2705934291607428  6.1437551766679706   F   F   F
 23.3053818230426870  4.5411868583214883  6.1437551766679643   F   F   F
 24.3249922778007992  6.8117802874822289  6.1437551766679706   F   F   F
 25.3446027325589185  9.0823737166429748  6.1437551766679697   F   F   F
 26.3642131873170342 11.3529671458037154  6.1437551766679697   F   F   F
 27.3838236420751535 13.6235605749644595  6.1437551766679643   F   F   F
 17.7703536400700415 -2.5228815879563804  6.1437551766679670   F   F   F
 18.7899640948281572 -0.2522881587956360  6.1437551766679661   F   F   F
 19.8095745495862730  2.0183052703651057  6.1437551766679688   F   F   F
 20.8291850043443958  4.2888986995258476  6.1437551766679679   F   F   F
 21.8487954591025115  6.5594921286865944  6.1437551766679643   F   F   F
 22.8684059138606273  8.8300855578473350  6.1437551766679697   F   F   F
 23.8880163686187430 11.1006789870080809  6.1437551766679679   F   F   F
 24.9076268233768694 13.3712724161688197  6.1437551766679723   F   F   F
 15.2941568213717627 -2.7751697467520167  6.1437551766679634   F   F   F
 16.3137672761298766 -0.5045763175912746  6.1437551766679670   F   F   F
 17.3333777308879924  1.7660171115694687  6.1437551766679679   F   F   F
 18.3529881856461152  4.0366105407302113  6.1437551766679643   F   F   F
 19.3725986404042310  6.3072039698909537  6.1437551766679679   F   F   F
 20.3922090951623431  8.5777973990516987  6.1437551766679679   F   F   F
 21.4118195499204660 10.8483908282124411  6.1437551766679679   F   F   F
 22.4314300046785817 13.1189842573731852  6.1437551766679661   F   F   F
 12.8179600026734768 -3.0274579055476565  6.1437551766679661   F   F   F
 13.8375704574315961 -0.7568644763869153  6.1437551766679697   F   F   F
 14.8571809121897136  1.5137289527738302  6.1437551766679661   F   F   F
 15.8767913669478293  3.7843223819345715  6.1437551766679679   F   F   F
 16.8964018217059468  6.0549158110953174  6.1437551766679697   F   F   F
 17.9160122764640661  8.3255092402560571  6.1437551766679679   F   F   F
 18.9356227312221819 10.5961026694168030  6.1437551766679706   F   F   F
 19.9552331859803047 12.8666960985775454  6.1437551766679679   F   F   F
 10.3417631839751873 -3.2797460643432963  6.1437551766679670   F   F   F
 11.3613736387333066 -1.0091526351825524  6.1437551766679670   F   F   F
 12.3809840934914241  1.2614407939781926  6.1437551766679679   F   F   F
 13.4005945482495417  3.5320342231389348  6.1437551766679670   F   F   F
 14.4202050030076627  5.8026276522996776  6.1437551766679679   F   F   F
 15.4398154577657785  8.0732210814604226  6.1437551766679679   F   F   F
 16.4594259125238942 10.3438145106211632  6.1437551766679697   F   F   F
 17.4790363672820135 12.6144079397819073  6.1437551766679679   F   F   F
  7.8655663652769059 -3.5320342231389343  6.1437551766679661   F   F   F
  8.8851768200350225 -1.2614407939781920  6.1437551766679688   F   F   F
  9.9047872747931400  1.0091526351825535  6.1437551766679652   F   F   F
 10.9243977295512575  3.2797460643432963  6.1437551766679652   F   F   F
 11.9440081843093768  5.5503394935040378  6.1437551766679688   F   F   F
 12.9636186390674926  7.8209329226647828  6.1437551766679643   F   F   F
 13.9832290938256101 10.0915263518255287  6.1437551766679661   F   F   F
 15.0028395485837258 12.3621197809862675  6.1437551766679697   F   F   F
  5.3893695465786200 -3.7843223819345719  6.1437551766679652   F   F   F
  6.4089800013367384 -1.5137289527738291  6.1437551766679661   F   F   F
  7.4285904560948550  0.7568644763869148  6.1437551766679661   F   F   F
  8.4482009108529716  3.0274579055476587  6.1437551766679652   F   F   F
  9.4678113656110909  5.2980513347084015  6.1437551766679670   F   F   F
 10.4874218203692102  7.5686447638691448  6.1437551766679688   F   F   F
 11.5070322751273260  9.8392381930298871  6.1437551766679688   F   F   F
 12.5266427298854470 12.1098316221906330  6.1437551766679661   F   F   F
  2.9131727278803337 -4.0366105407302104  6.1437551766679661   F   F   F
  3.9327831826384521 -1.7660171115694672  6.1437551766679661   F   F   F
  4.9523936373965691  0.5045763175912757  6.1437551766679670   F   F   F
  5.9720040921546858  2.7751697467520176  6.1437551766679661   F   F   F
  6.9916145469128050  5.0457631759127644  6.1437551766679652   F   F   F
  8.0112250016709243  7.3163566050735067  6.1437551766679652   F   F   F
  9.0308354564290383  9.5869500342342473  6.1437551766679679   F   F   F
 10.0504459111871576 11.8575434633949914  6.1437551766679661   F   F   F
  0.4369759091820495 -4.2888986995258485  6.1437551766679661   F   F   F
 22.8684059138606308 -3.4479381702070531  8.1760281242154491   T   T   T
 23.8880163686187537 -1.1773447410463100  8.1760281242154527   T   T   T
 24.9076268233768729  1.0932486881144348  8.1760281242154527   T   T   T
 25.9272372781349816  3.3638421172751762  8.1760281242154473   T   T   T
 26.9468477328931044  5.6344355464359195  8.1760281242154562   T   T   T
 27.9664581876512237  7.9050289755966672  8.1760281242154473   T   T   T
 28.9860686424093430 10.1756224047574086  8.1760281242154473   T   T   T
 30.0056790971674587 12.4462158339181510  8.1760281242154473   T   T   T
 20.3922090951623431 -3.7002263290026915  8.1760281242154491   T   T   T
 21.4118195499204624 -1.4296328998419483  8.1760281242154527   T   T   T
 22.4314300046785782  0.8409605293187916  8.1760281242154544   T   T   T
 23.4510404594366975  3.1115539584795382  8.1760281242154509   T   T   T
 24.4706509141948203  5.3821473876402806  8.1760281242154527   T   T   T
 25.4902613689529360  7.6527408168010282  8.1760281242154491   T   T   T
 26.5098718237110482  9.9233342459617706  8.1760281242154473   T   T   T
 27.5294822784691675 12.1939276751225112  8.1760281242154491   T   T   T
 17.9160122764640590 -3.9525144877983314  8.1760281242154527   T   T   T
 18.9356227312221819 -1.6819210586375863  8.1760281242154491   T   T   T
 19.9552331859803012  0.5886723705231576  8.1760281242154509   T   T   T
 20.9748436407384169  2.8592657996838984  8.1760281242154491   T   T   T
 21.9944540954965326  5.1298592288446434  8.1760281242154509   T   T   T
 23.0140645502546484  7.4004526580053849  8.1760281242154527   T   T   T
 24.0336750050127606  9.6710460871661308  8.1760281242154491   T   T   T
 25.0532854597708905 11.9416395163268714  8.1760281242154544   T   T   T
 15.4398154577657838 -4.2048026465939685  8.1760281242154491   T   T   T
 16.4594259125238906 -1.9342092174332239  8.1760281242154491   T   T   T
 17.4790363672820135  0.3363842117275185  8.1760281242154491   T   T   T
 18.4986468220401328  2.6069776408882603  8.1760281242154491   T   T   T
 19.5182572767982450  4.8775710700490063  8.1760281242154491   T   T   T
 20.5378677315563607  7.1481644992097486  8.1760281242154491   T   T   T
 21.5574781863144835  9.4187579283704927  8.1760281242154491   T   T   T
 22.5770886410726028 11.6893513575312369  8.1760281242154491   T   T   T
 12.9636186390674943 -4.4570908053896057  8.1760281242154473   T   T   T
 13.9832290938256101 -2.1864973762288620  8.1760281242154473   T   T   T
 15.0028395485837276  0.0840960529318830  8.1760281242154491   T   T   T
 16.0224500033418487  2.3546894820926250  8.1760281242154473   T   T   T
 17.0420604580999679  4.6252829112533673  8.1760281242154491   T   T   T
 18.0616709128580801  6.8958763404141115  8.1760281242154491   T   T   T
 19.0812813676161994  9.1664697695748529  8.1760281242154491   T   T   T
 20.1008918223743152 11.4370631987355971  8.1760281242154456   T   T   T
 10.4874218203692049 -4.7093789641852446  8.1760281242154473   T   T   T
 11.5070322751273277 -2.4387855350245022  8.1760281242154509   T   T   T
 12.5266427298854417 -0.1681921058637582  8.1760281242154473   T   T   T
 13.5462531846435574  2.1024013232969851  8.1760281242154509   T   T   T
 14.5658636394016803  4.3729947524577266  8.1760281242154491   T   T   T
 15.5854740941597960  6.6435881816184752  8.1760281242154491   T   T   T
 16.6050845489179117  8.9141816107792167  8.1760281242154491   T   T   T
 17.6246950036760310 11.1847750399399573  8.1760281242154491   T   T   T
  8.0112250016709243 -4.9616671229808835  8.1760281242154473   T   T   T
  9.0308354564290365 -2.6910736938201403  8.1760281242154491   T   T   T
 10.0504459111871558 -0.4204802646593968  8.1760281242154473   T   T   T
 11.0700563659452733  1.8501131645013460  8.1760281242154473   T   T   T
 12.0896668207033908  4.1207065936620886  8.1760281242154509   T   T   T
 13.1092772754615083  6.3913000228228318  8.1760281242154509   T   T   T
 14.1288877302196241  8.6618934519835786  8.1760281242154491   T   T   T
 15.1484981849777469 10.9324868811443192  8.1760281242154491   T   T   T
  5.5350281829726340 -5.2139552817765207  8.1760281242154473   T   T   T
  6.5546386377307533 -2.9433618526157783  8.1760281242154473   T   T   T
  7.5742490924888726 -0.6727684234550354  8.1760281242154491   T   T   T
  8.5938595472469874  1.5978250057057080  8.1760281242154473   T   T   T
  9.6134700020051067  3.8684184348664528  8.1760281242154491   T   T   T
 10.6330804567632224  6.1390118640271947  8.1760281242154456   T   T   T
 11.6526909115213400  8.4096052931879370  8.1760281242154491   T   T   T
 12.6723013662794610 10.6801987223486812  8.1760281242154544   T   T   T
  3.0588313642743521 -5.4662434405721596  8.1760281242154473   T   T   T
  4.0784418190324701 -3.1956500114114168  8.1760281242154473   T   T   T
  5.0980522737905876 -0.9250565822506737  8.1760281242154473   T   T   T
  6.1176627285487024  1.3455368469100699  8.1760281242154473   T   T   T
  7.1372731833068217  3.6161302760708138  8.1760281242154473   T   T   T
  8.1568836380649401  5.8867237052315575  8.1760281242154473   T   T   T
  9.1764940928230558  8.1573171343922990  8.1760281242154491   T   T   T
 10.1961045475811733 10.4279105635530414  8.1760281242154491   T   T   T
  0.5826345455760658 -5.7185315993677976  8.1760281242154473   T   T   T
 23.0140645502546448 -4.8775710700490036 10.2083010717629321   T   T   T
 24.0336750050127606 -2.6069776408882595 10.2083010717629357   T   T   T
 25.0532854597708834 -0.3363842117275185 10.2083010717629374   T   T   T
 26.0728959145289956  1.9342092174332248 10.2083010717629357   T   T   T
 27.0925063692871184  4.2048026465939694 10.2083010717629357   T   T   T
 28.1121168240452377  6.4753960757547171 10.2083010717629286   T   T   T
 29.1317272788033570  8.7459895049154568 10.2083010717629303   T   T   T
 30.1513377335614763 11.0165829340762027 10.2083010717629303   T   T   T
 20.5378677315563642 -5.1298592288446443 10.2083010717629374   T   T   T
 21.5574781863144800 -2.8592657996838984 10.2083010717629357   T   T   T
 22.5770886410725993 -0.5886723705231546 10.2083010717629357   T   T   T
 23.5966990958307186  1.6819210586375863 10.2083010717629357   T   T   T
 24.6163095505888379  3.9525144877983314 10.2083010717629339   T   T   T
 25.6359200053469500  6.2231079169590764 10.2083010717629339   T   T   T
 26.6555304601050658  8.4937013461198188 10.2083010717629357   T   T   T
 27.6751409148631922 10.7642947752805611 10.2083010717629357   T   T   T
 18.0616709128580766 -5.3821473876402788 10.2083010717629321   T   T   T
 19.0812813676161923 -3.1115539584795333 10.2083010717629303   T   T   T
 20.1008918223743080 -0.8409605293187911 10.2083010717629321   T   T   T
 21.1205022771324273  1.4296328998419476 10.2083010717629357   T   T   T
 22.1401127318905502  3.7002263290027004 10.2083010717629286   T   T   T
 23.1597231866486588  5.9708197581634375 10.2083010717629321   T   T   T
 24.1793336414067781  8.2414131873241807 10.2083010717629339   T   T   T
 25.1989440961649009 10.5120066164849195 10.2083010717629374   T   T   T
 15.5854740941597960 -5.6344355464359168 10.2083010717629303   T   T   T
 16.6050845489179117 -3.3638421172751758 10.2083010717629357   T   T   T
 17.6246950036760310 -1.0932486881144339 10.2083010717629357   T   T   T
 18.6443054584341468  1.1773447410463111 10.2083010717629321   T   T   T
 19.6639159131922661  3.4479381702070548 10.2083010717629321   T   T   T
 20.6835263679503747  5.7185315993677968 10.2083010717629374   T   T   T
 21.7031368227084940  7.9891250285285373 10.2083010717629374   T   T   T
 22.7227472774666204 10.2597184576892850 10.2083010717629339   T   T   T
 13.1092772754615083 -5.8867237052315557 10.2083010717629303   T   T   T
 14.1288877302196276 -3.6161302760708129 10.2083010717629321   T   T   T
 15.1484981849777451 -1.3455368469100690 10.2083010717629303   T   T   T
 16.1681086397358627  0.9250565822506730 10.2083010717629339   T   T   T
 17.1877190944939748  3.1956500114114181 10.2083010717629321   T   T   T
 18.2073295492520977  5.4662434405721605 10.2083010717629357   T   T   T
 19.2269400040102134  7.7368368697329029 10.2083010717629357   T   T   T
 20.2465504587683327 10.0074302988936452 10.2083010717629339   T   T   T
 10.6330804567632224 -6.1390118640271938 10.2083010717629303   T   T   T
 11.6526909115213400 -3.8684184348664510 10.2083010717629321   T   T   T
 12.6723013662794592 -1.5978250057057080 10.2083010717629321   T   T   T
 13.6919118210375714  0.6727684234550375 10.2083010717629286   T   T   T
 14.7115222757956943  2.9433618526157770 10.2083010717629357   T   T   T
 15.7311327305538100  5.2139552817765269 10.2083010717629303   T   T   T
 16.7507431853119257  7.4845487109372675 10.2083010717629321   T   T   T
 17.7703536400700450  9.7551421400980107 10.2083010717629303   T   T   T
  8.1568836380649419 -6.3913000228228336 10.2083010717629339   T   T   T
  9.1764940928230558 -4.1207065936620912 10.2083010717629357   T   T   T
 10.1961045475811733 -1.8501131645013467 10.2083010717629321   T   T   T
 11.2157150023392926  0.4204802646593959 10.2083010717629339   T   T   T
 12.2353254570974102  2.6910736938201398 10.2083010717629339   T   T   T
 13.2549359118555259  4.9616671229808818 10.2083010717629357   T   T   T
 14.2745463666136452  7.2322605521416259 10.2083010717629357   T   T   T
 15.2941568213717627  9.5028539813023674 10.2083010717629357   T   T   T
  5.6806868193666507 -6.6435881816184716 10.2083010717629321   T   T   T
  6.7002972741247699 -4.3729947524577284 10.2083010717629321   T   T   T
  7.7199077288828866 -2.1024013232969869 10.2083010717629339   T   T   T
  8.7395181836410067  0.1681921058637582 10.2083010717629321   T   T   T
  9.7591286383991225  2.4387855350244991 10.2083010717629339   T   T   T
 10.7787390931572400  4.7093789641852437 10.2083010717629357   T   T   T
 11.7983495479153540  6.9799723933459834 10.2083010717629357   T   T   T
 12.8179600026734732  9.2505658225067329 10.2083010717629321   T   T   T
  3.2044900006683665 -6.8958763404141123 10.2083010717629339   T   T   T
  4.2241004554264858 -4.6252829112533664 10.2083010717629321   T   T   T
  5.2437109101846024 -2.3546894820926254 10.2083010717629339   T   T   T
  6.2633213649427191 -0.0840960529318837 10.2083010717629339   T   T   T
  7.2829318197008401  2.1864973762288633 10.2083010717629339   T   T   T
  8.3025422744589559  4.4570908053896066 10.2083010717629339   T   T   T
  9.3221527292170734  6.7276842345503489 10.2083010717629339   T   T   T
 10.3417631839751891  8.9982776637110913 10.2083010717629357   T   T   T
  0.7282931819700824 -7.1481644992097486 10.2083010717629321   T   T   T
  7.9748103425724208 13.8127766940611867 50.4083010717629278   T   T   T
 10.6330804567632242 15.3475296600679840 50.4083010717629278   T   T   T
 13.2913505709540303 16.8822826260747796 50.4083010717629278   T   T   T
  5.3165402283816139  9.2085177960407911 50.4083010717629278   T   T   T
  7.9748103425724182 10.7432707620475885 50.4083010717629278   T   T   T
 10.6330804567632242 12.2780237280543876 50.4083010717629278   T   T   T
 13.2913505709540303 13.8127766940611867 50.4083010717629278   T   T   T
 15.9496206851448363 15.3475296600679840 50.4083010717629278   T   T   T
 18.6078907993356424 16.8822826260747796 50.4083010717629278   T   T   T
  2.6582701141908069  4.6042588980203956 50.4083010717629278   T   T   T
  5.3165402283816121  6.1390118640271938 50.4083010717629278   T   T   T
  7.9748103425724182  7.6737648300339920 50.4083010717629278   T   T   T
 10.6330804567632224  9.2085177960407911 50.4083010717629278   T   T   T
 13.2913505709540285 10.7432707620475885 50.4083010717629278   T   T   T
 15.9496206851448381 12.2780237280543876 50.4083010717629278   T   T   T
 18.6078907993356424 13.8127766940611867 50.4083010717629278   T   T   T
 21.2661609135264449 15.3475296600679840 50.4083010717629278   T   T   T
 23.9244310277172545 16.8822826260747796 50.4083010717629278   T   T   T
  0.0000000000000000  0.0000000000000000 50.4083010717629278   T   T   T
  2.6582701141908061  1.5347529660067984 50.4083010717629278   T   T   T
  5.3165402283816121  3.0695059320135969 50.4083010717629278   T   T   T
  7.9748103425724182  4.6042588980203956 50.4083010717629278   T   T   T
 10.6330804567632242  6.1390118640271938 50.4083010717629278   T   T   T
 13.2913505709540267  7.6737648300339920 50.4083010717629278   T   T   T
 15.9496206851448363  9.2085177960407911 50.4083010717629278   T   T   T
 18.6078907993356424 10.7432707620475885 50.4083010717629278   T   T   T
 21.2661609135264484 12.2780237280543876 50.4083010717629278   T   T   T
 23.9244310277172545 13.8127766940611867 50.4083010717629278   T   T   T
 26.5827011419080534 15.3475296600679840 50.4083010717629278   T   T   T
 29.2409712560988737 16.8822826260747796 50.4083010717629278   T   T   T
  5.3165402283816112  0.0000000000000000 50.4083010717629278   T   T   T
  7.9748103425724173  1.5347529660067984 50.4083010717629278   T   T   T
 10.6330804567632207  3.0695059320135969 50.4083010717629278   T   T   T
 13.2913505709540303  4.6042588980203956 50.4083010717629278   T   T   T
 15.9496206851448346  6.1390118640271938 50.4083010717629278   T   T   T
 18.6078907993356388  7.6737648300339920 50.4083010717629278   T   T   T
 21.2661609135264484  9.2085177960407911 50.4083010717629278   T   T   T
 23.9244310277172474 10.7432707620475885 50.4083010717629278   T   T   T
 26.5827011419080570 12.2780237280543876 50.4083010717629278   T   T   T
 10.6330804567632224  0.0000000000000000 50.4083010717629278   T   T   T
 13.2913505709540338  1.5347529660067984 50.4083010717629278   T   T   T
 15.9496206851448346  3.0695059320135969 50.4083010717629278   T   T   T
 18.6078907993356388  4.6042588980203956 50.4083010717629278   T   T   T
 21.2661609135264413  6.1390118640271938 50.4083010717629278   T   T   T
 23.9244310277172545  7.6737648300339920 50.4083010717629278   T   T   T
 15.9496206851448328  0.0000000000000000 50.4083010717629278   T   T   T
 18.6078907993356388  1.5347529660067980 50.4083010717629278   T   T   T
 21.2661609135264413  3.0695059320135964 50.4083010717629278   T   T   T
  8.8609003806360231 12.2780237280543876 48.4083010717629350   T   T   T
 11.5191704948268274 13.8127766940611849 48.4083010717629350   T   T   T
 14.1774406090176335 15.3475296600679822 48.4083010717629350   T   T   T
  6.2026302664452144  7.6737648300339929 48.4083010717629350   T   T   T
  8.8609003806360196  9.2085177960407893 48.4083010717629350   T   T   T
 11.5191704948268274 10.7432707620475885 48.4083010717629350   T   T   T
 14.1774406090176335 12.2780237280543876 48.4083010717629350   T   T   T
 16.8357107232084360 13.8127766940611849 48.4083010717629350   T   T   T
 19.4939808373992420 15.3475296600679822 48.4083010717629350   T   T   T
  3.5443601522544075  3.0695059320135973 48.4083010717629350   T   T   T
  6.2026302664452153  4.6042588980203956 48.4083010717629350   T   T   T
  8.8609003806360178  6.1390118640271938 48.4083010717629350   T   T   T
 11.5191704948268239  7.6737648300339929 48.4083010717629350   T   T   T
 14.1774406090176335  9.2085177960407893 48.4083010717629350   T   T   T
 16.8357107232084360 10.7432707620475885 48.4083010717629350   T   T   T
 19.4939808373992420 12.2780237280543876 48.4083010717629350   T   T   T
 22.1522509515900481 13.8127766940611849 48.4083010717629350   T   T   T
 24.8105210657808612 15.3475296600679822 48.4083010717629350   T   T   T
 11.5191704948268292 16.8822826260747796 48.4083010717629350   T   T   T
  3.5443601522544075  0.0000000000000000 48.4083010717629350   T   T   T
  6.2026302664452135  1.5347529660067984 48.4083010717629350   T   T   T
  8.8609003806360214  3.0695059320135973 48.4083010717629350   T   T   T
 11.5191704948268274  4.6042588980203956 48.4083010717629350   T   T   T
 14.1774406090176317  6.1390118640271938 48.4083010717629350   T   T   T
 16.8357107232084360  7.6737648300339929 48.4083010717629350   T   T   T
 19.4939808373992456  9.2085177960407893 48.4083010717629350   T   T   T
 22.1522509515900516 10.7432707620475885 48.4083010717629350   T   T   T
 24.8105210657808577 12.2780237280543876 48.4083010717629350   T   T   T
 27.4687911799716602 13.8127766940611849 48.4083010717629350   T   T   T
  8.8609003806360267 15.3475296600679822 48.4083010717629350   T   T   T
 16.8357107232084395 16.8822826260747796 48.4083010717629350   T   T   T
  8.8609003806360196  0.0000000000000000 48.4083010717629350   T   T   T
 11.5191704948268239  1.5347529660067984 48.4083010717629350   T   T   T
 14.1774406090176317  3.0695059320135973 48.4083010717629350   T   T   T
 16.8357107232084324  4.6042588980203956 48.4083010717629350   T   T   T
 19.4939808373992420  6.1390118640271938 48.4083010717629350   T   T   T
 22.1522509515900516  7.6737648300339929 48.4083010717629350   T   T   T
 24.8105210657808541  9.2085177960407893 48.4083010717629350   T   T   T
 27.4687911799716531 10.7432707620475885 48.4083010717629350   T   T   T
 22.1522509515900552 16.8822826260747796 48.4083010717629350   T   T   T
 14.1774406090176335  0.0000000000000000 48.4083010717629350   T   T   T
 16.8357107232084360  1.5347529660067984 48.4083010717629350   T   T   T
 19.4939808373992420  3.0695059320135973 48.4083010717629350   T   T   T
 22.1522509515900445  4.6042588980203956 48.4083010717629350   T   T   T
  3.5443601522544093  6.1390118640271938 48.4083010717629350   T   T   T
 27.4687911799716566 16.8822826260747796 48.4083010717629350   T   T   T
 19.4939808373992420  0.0000000000000000 48.4083010717629350   T   T   T
 22.1522509515900445  1.5347529660067980 48.4083010717629350   T   T   T
  7.9748103425724208 13.8127766940611867 30.4083010717629385   T   T   T
 10.6330804567632242 15.3475296600679840 30.4083010717629385   T   T   T
 13.2913505709540303 16.8822826260747796 30.4083010717629385   T   T   T
  5.3165402283816139  9.2085177960407911 30.4083010717629385   T   T   T
  7.9748103425724182 10.7432707620475885 30.4083010717629385   T   T   T
 10.6330804567632242 12.2780237280543876 30.4083010717629385   T   T   T
 13.2913505709540303 13.8127766940611867 30.4083010717629385   T   T   T
 15.9496206851448363 15.3475296600679840 30.4083010717629385   T   T   T
 18.6078907993356424 16.8822826260747796 30.4083010717629385   T   T   T
  2.6582701141908069  4.6042588980203956 30.4083010717629385   T   T   T
  5.3165402283816121  6.1390118640271938 30.4083010717629385   T   T   T
  7.9748103425724182  7.6737648300339920 30.4083010717629385   T   T   T
 10.6330804567632224  9.2085177960407911 30.4083010717629385   T   T   T
 13.2913505709540285 10.7432707620475885 30.4083010717629385   T   T   T
 15.9496206851448381 12.2780237280543876 30.4083010717629385   T   T   T
 18.6078907993356424 13.8127766940611867 30.4083010717629385   T   T   T
 21.2661609135264449 15.3475296600679840 30.4083010717629421   T   T   T
 23.9244310277172545 16.8822826260747796 30.4083010717629421   T   T   T
  0.0000000000000000  0.0000000000000000 30.4083010717629385   T   T   T
  2.6582701141908061  1.5347529660067984 30.4083010717629385   T   T   T
  5.3165402283816121  3.0695059320135969 30.4083010717629385   T   T   T
  7.9748103425724182  4.6042588980203956 30.4083010717629385   T   T   T
 10.6330804567632242  6.1390118640271938 30.4083010717629385   T   T   T
 13.2913505709540267  7.6737648300339920 30.4083010717629385   T   T   T
 15.9496206851448363  9.2085177960407911 30.4083010717629385   T   T   T
 18.6078907993356424 10.7432707620475885 30.4083010717629385   T   T   T
 21.2661609135264484 12.2780237280543876 30.4083010717629385   T   T   T
 23.9244310277172545 13.8127766940611867 30.4083010717629421   T   T   T
 26.5827011419080534 15.3475296600679840 30.4083010717629421   T   T   T
 29.2409712560988737 16.8822826260747796 30.4083010717629421   T   T   T
  5.3165402283816112  0.0000000000000000 30.4083010717629385   T   T   T
  7.9748103425724173  1.5347529660067984 30.4083010717629385   T   T   T
 10.6330804567632207  3.0695059320135969 30.4083010717629385   T   T   T
 13.2913505709540303  4.6042588980203956 30.4083010717629385   T   T   T
 15.9496206851448346  6.1390118640271938 30.4083010717629385   T   T   T
 18.6078907993356388  7.6737648300339920 30.4083010717629385   T   T   T
 21.2661609135264484  9.2085177960407911 30.4083010717629385   T   T   T
 23.9244310277172474 10.7432707620475885 30.4083010717629421   T   T   T
 26.5827011419080570 12.2780237280543876 30.4083010717629421   T   T   T
 10.6330804567632224  0.0000000000000000 30.4083010717629385   T   T   T
 13.2913505709540338  1.5347529660067984 30.4083010717629385   T   T   T
 15.9496206851448346  3.0695059320135969 30.4083010717629385   T   T   T
 18.6078907993356388  4.6042588980203956 30.4083010717629385   T   T   T
 21.2661609135264413  6.1390118640271938 30.4083010717629385   T   T   T
 23.9244310277172545  7.6737648300339920 30.4083010717629385   T   T   T
 15.9496206851448328  0.0000000000000000 30.4083010717629385   T   T   T
 18.6078907993356388  1.5347529660067980 30.4083010717629385   T   T   T
 21.2661609135264413  3.0695059320135964 30.4083010717629385   T   T   T
  8.8609003806360231 12.2780237280543876 28.4083010717629314   T   T   T
 11.5191704948268274 13.8127766940611849 28.4083010717629314   T   T   T
 14.1774406090176335 15.3475296600679822 28.4083010717629314   T   T   T
  6.2026302664452144  7.6737648300339929 28.4083010717629314   T   T   T
  8.8609003806360196  9.2085177960407893 28.4083010717629314   T   T   T
 11.5191704948268274 10.7432707620475885 28.4083010717629314   T   T   T
 14.1774406090176335 12.2780237280543876 28.4083010717629314   T   T   T
 16.8357107232084360 13.8127766940611849 28.4083010717629314   T   T   T
 19.4939808373992420 15.3475296600679822 28.4083010717629314   T   T   T
  3.5443601522544075  3.0695059320135973 28.4083010717629314   T   T   T
  6.2026302664452153  4.6042588980203956 28.4083010717629314   T   T   T
  8.8609003806360178  6.1390118640271938 28.4083010717629314   T   T   T
 11.5191704948268239  7.6737648300339929 28.4083010717629314   T   T   T
 14.1774406090176335  9.2085177960407893 28.4083010717629314   T   T   T
 16.8357107232084360 10.7432707620475885 28.4083010717629314   T   T   T
 19.4939808373992420 12.2780237280543876 28.4083010717629314   T   T   T
 22.1522509515900481 13.8127766940611849 28.4083010717629350   T   T   T
 24.8105210657808612 15.3475296600679822 28.4083010717629350   T   T   T
 11.5191704948268292 16.8822826260747796 28.4083010717629314   T   T   T
  3.5443601522544075  0.0000000000000000 28.4083010717629314   T   T   T
  6.2026302664452135  1.5347529660067984 28.4083010717629314   T   T   T
  8.8609003806360214  3.0695059320135973 28.4083010717629314   T   T   T
 11.5191704948268274  4.6042588980203956 28.4083010717629314   T   T   T
 14.1774406090176317  6.1390118640271938 28.4083010717629314   T   T   T
 16.8357107232084360  7.6737648300339929 28.4083010717629314   T   T   T
 19.4939808373992456  9.2085177960407893 28.4083010717629314   T   T   T
 22.1522509515900516 10.7432707620475885 28.4083010717629314   T   T   T
 24.8105210657808577 12.2780237280543876 28.4083010717629350   T   T   T
 27.4687911799716602 13.8127766940611849 28.4083010717629350   T   T   T
  8.8609003806360267 15.3475296600679822 28.4083010717629314   T   T   T
 16.8357107232084395 16.8822826260747796 28.4083010717629314   T   T   T
  8.8609003806360196  0.0000000000000000 28.4083010717629314   T   T   T
 11.5191704948268239  1.5347529660067984 28.4083010717629314   T   T   T
 14.1774406090176317  3.0695059320135973 28.4083010717629314   T   T   T
 16.8357107232084324  4.6042588980203956 28.4083010717629314   T   T   T
 19.4939808373992420  6.1390118640271938 28.4083010717629314   T   T   T
 22.1522509515900516  7.6737648300339929 28.4083010717629314   T   T   T
 24.8105210657808541  9.2085177960407893 28.4083010717629350   T   T   T
 27.4687911799716531 10.7432707620475885 28.4083010717629350   T   T   T
 22.1522509515900552 16.8822826260747796 28.4083010717629350   T   T   T
 14.1774406090176335  0.0000000000000000 28.4083010717629314   T   T   T
 16.8357107232084360  1.5347529660067984 28.4083010717629314   T   T   T
 19.4939808373992420  3.0695059320135973 28.4083010717629314   T   T   T
 22.1522509515900445  4.6042588980203956 28.4083010717629314   T   T   T
  3.5443601522544093  6.1390118640271938 28.4083010717629314   T   T   T
 27.4687911799716566 16.8822826260747796 28.4083010717629350   T   T   T
 19.4939808373992420  0.0000000000000000 28.4083010717629314   T   T   T
 22.1522509515900445  1.5347529660067980 28.4083010717629314   T   T   T
  9.7469904186996246 13.8127766940611867 32.4083010717629207   T   T   T
 12.4052605328904306 15.3475296600679840 32.4083010717629207   T   T   T
 15.0635306470812367 16.8822826260747796 32.4083010717629207   T   T   T
  7.0887203045088159  9.2085177960407911 32.4083010717629207   T   T   T
  9.7469904186996228 10.7432707620475885 32.4083010717629207   T   T   T
 12.4052605328904306 12.2780237280543876 32.4083010717629207   T   T   T
 15.0635306470812331 13.8127766940611867 32.4083010717629207   T   T   T
 17.7218007612720356 15.3475296600679840 32.4083010717629207   T   T   T
 20.3800708754628488 16.8822826260747796 32.4083010717629207   T   T   T
  4.4304501903180098  4.6042588980203956 32.4083010717629207   T   T   T
  7.0887203045088150  6.1390118640271938 32.4083010717629207   T   T   T
  9.7469904186996228  7.6737648300339920 32.4083010717629207   T   T   T
 12.4052605328904306  9.2085177960407911 32.4083010717629207   T   T   T
 15.0635306470812331 10.7432707620475885 32.4083010717629207   T   T   T
 17.7218007612720356 12.2780237280543876 32.4083010717629207   T   T   T
 20.3800708754628417 13.8127766940611867 32.4083010717629207   T   T   T
 23.0383409896536548 15.3475296600679840 32.4083010717629207   T   T   T
 25.6966111038444573 16.8822826260747796 32.4083010717629207   T   T   T
  1.7721800761272037  0.0000000000000000 32.4083010717629207   T   T   T
  4.4304501903180107  1.5347529660067984 32.4083010717629207   T   T   T
  7.0887203045088159  3.0695059320135969 32.4083010717629207   T   T   T
  9.7469904186996210  4.6042588980203956 32.4083010717629207   T   T   T
 12.4052605328904288  6.1390118640271938 32.4083010717629207   T   T   T
 15.0635306470812331  7.6737648300339920 32.4083010717629207   T   T   T
 17.7218007612720427  9.2085177960407911 32.4083010717629207   T   T   T
 20.3800708754628452 10.7432707620475885 32.4083010717629207   T   T   T
 23.0383409896536548 12.2780237280543876 32.4083010717629207   T   T   T
 25.6966111038444573 13.8127766940611867 32.4083010717629207   T   T   T
 28.3548812180352598 15.3475296600679840 32.4083010717629207   T   T   T
  9.7469904186996299 16.8822826260747796 32.4083010717629207   T   T   T
  7.0887203045088150  0.0000000000000000 32.4083010717629207   T   T   T
  9.7469904186996210  1.5347529660067984 32.4083010717629207   T   T   T
 12.4052605328904253  3.0695059320135969 32.4083010717629207   T   T   T
 15.0635306470812331  4.6042588980203956 32.4083010717629207   T   T   T
 17.7218007612720356  6.1390118640271938 32.4083010717629207   T   T   T
 20.3800708754628452  7.6737648300339920 32.4083010717629207   T   T   T
 23.0383409896536548  9.2085177960407911 32.4083010717629207   T   T   T
 25.6966111038444573 10.7432707620475885 32.4083010717629207   T   T   T
  7.0887203045088185 12.2780237280543876 32.4083010717629207   T   T   T
 12.4052605328904271  0.0000000000000000 32.4083010717629207   T   T   T
 15.0635306470812331  1.5347529660067984 32.4083010717629207   T   T   T
 17.7218007612720356  3.0695059320135969 32.4083010717629207   T   T   T
 20.3800708754628381  4.6042588980203956 32.4083010717629207   T   T   T
 23.0383409896536513  6.1390118640271938 32.4083010717629207   T   T   T
  4.4304501903180107  7.6737648300339920 32.4083010717629207   T   T   T
 17.7218007612720392  0.0000000000000000 32.4083010717629207   T   T   T
 20.3800708754628452  1.5347529660067980 32.4083010717629207   T   T   T
  1.7721800761272042  3.0695059320135964 32.4083010717629207   T   T   T
  9.7469904186996246 13.8127766940611867 46.4083010717629350   T   T   T
 12.4052605328904306 15.3475296600679840 46.4083010717629350   T   T   T
 15.0635306470812367 16.8822826260747796 46.4083010717629350   T   T   T
  7.0887203045088159  9.2085177960407911 46.4083010717629350   T   T   T
  9.7469904186996228 10.7432707620475885 46.4083010717629350   T   T   T
 12.4052605328904306 12.2780237280543876 46.4083010717629350   T   T   T
 15.0635306470812331 13.8127766940611867 46.4083010717629350   T   T   T
 17.7218007612720356 15.3475296600679840 46.4083010717629350   T   T   T
 20.3800708754628488 16.8822826260747796 46.4083010717629350   T   T   T
  4.4304501903180098  4.6042588980203956 46.4083010717629350   T   T   T
  7.0887203045088150  6.1390118640271938 46.4083010717629350   T   T   T
  9.7469904186996228  7.6737648300339920 46.4083010717629350   T   T   T
 12.4052605328904306  9.2085177960407911 46.4083010717629350   T   T   T
 15.0635306470812331 10.7432707620475885 46.4083010717629350   T   T   T
 17.7218007612720356 12.2780237280543876 46.4083010717629350   T   T   T
 20.3800708754628417 13.8127766940611867 46.4083010717629350   T   T   T
 23.0383409896536548 15.3475296600679840 46.4083010717629350   T   T   T
 25.6966111038444573 16.8822826260747796 46.4083010717629350   T   T   T
  1.7721800761272037  0.0000000000000000 46.4083010717629350   T   T   T
  4.4304501903180107  1.5347529660067984 46.4083010717629350   T   T   T
  7.0887203045088159  3.0695059320135969 46.4083010717629350   T   T   T
  9.7469904186996210  4.6042588980203956 46.4083010717629350   T   T   T
 12.4052605328904288  6.1390118640271938 46.4083010717629350   T   T   T
 15.0635306470812331  7.6737648300339920 46.4083010717629350   T   T   T
 17.7218007612720427  9.2085177960407911 46.4083010717629350   T   T   T
 20.3800708754628452 10.7432707620475885 46.4083010717629350   T   T   T
 23.0383409896536548 12.2780237280543876 46.4083010717629350   T   T   T
 25.6966111038444573 13.8127766940611867 46.4083010717629350   T   T   T
 28.3548812180352598 15.3475296600679840 46.4083010717629350   T   T   T
  9.7469904186996299 16.8822826260747796 46.4083010717629350   T   T   T
  7.0887203045088150  0.0000000000000000 46.4083010717629350   T   T   T
  9.7469904186996210  1.5347529660067984 46.4083010717629350   T   T   T
 12.4052605328904253  3.0695059320135969 46.4083010717629350   T   T   T
 15.0635306470812331  4.6042588980203956 46.4083010717629350   T   T   T
 17.7218007612720356  6.1390118640271938 46.4083010717629350   T   T   T
 20.3800708754628452  7.6737648300339920 46.4083010717629350   T   T   T
 23.0383409896536548  9.2085177960407911 46.4083010717629350   T   T   T
 25.6966111038444573 10.7432707620475885 46.4083010717629350   T   T   T
  7.0887203045088185 12.2780237280543876 46.4083010717629350   T   T   T
 12.4052605328904271  0.0000000000000000 46.4083010717629350   T   T   T
 15.0635306470812331  1.5347529660067984 46.4083010717629350   T   T   T
 17.7218007612720356  3.0695059320135969 46.4083010717629350   T   T   T
 20.3800708754628381  4.6042588980203956 46.4083010717629350   T   T   T
 23.0383409896536513  6.1390118640271938 46.4083010717629350   T   T   T
  4.4304501903180107  7.6737648300339920 46.4083010717629350   T   T   T
 17.7218007612720392  0.0000000000000000 46.4083010717629350   T   T   T
 20.3800708754628452  1.5347529660067980 46.4083010717629350   T   T   T
  1.7721800761272042  3.0695059320135964 46.4083010717629350   T   T   T
  9.7469904186996246 13.8127766940611867 12.4083010717629385   T   T   T
 12.4052605328904306 15.3475296600679840 12.4083010717629385   T   T   T
 15.0635306470812367 16.8822826260747796 12.4083010717629385   T   T   T
  7.0887203045088159  9.2085177960407911 12.4083010717629367   T   T   T
  9.7469904186996228 10.7432707620475885 12.4083010717629385   T   T   T
 12.4052605328904306 12.2780237280543876 12.4083010717629385   T   T   T
 15.0635306470812331 13.8127766940611867 12.4083010717629385   T   T   T
 17.7218007612720356 15.3475296600679840 12.4083010717629385   T   T   T
 20.3800708754628488 16.8822826260747796 12.4083010717629385   T   T   T
  4.4304501903180098  4.6042588980203956 12.4083010717629367   T   T   T
  7.0887203045088150  6.1390118640271938 12.4083010717629367   T   T   T
  9.7469904186996228  7.6737648300339920 12.4083010717629367   T   T   T
 12.4052605328904306  9.2085177960407911 12.4083010717629385   T   T   T
 15.0635306470812331 10.7432707620475885 12.4083010717629385   T   T   T
 17.7218007612720356 12.2780237280543876 12.4083010717629385   T   T   T
 20.3800708754628417 13.8127766940611867 12.4083010717629385   T   T   T
 23.0383409896536548 15.3475296600679840 12.4083010717629385   T   T   T
 25.6966111038444573 16.8822826260747796 12.4083010717629385   T   T   T
  1.7721800761272037  0.0000000000000000 12.4083010717629367   T   T   T
  4.4304501903180107  1.5347529660067984 12.4083010717629367   T   T   T
  7.0887203045088159  3.0695059320135969 12.4083010717629367   T   T   T
  9.7469904186996210  4.6042588980203956 12.4083010717629367   T   T   T
 12.4052605328904288  6.1390118640271938 12.4083010717629385   T   T   T
 15.0635306470812331  7.6737648300339920 12.4083010717629385   T   T   T
 17.7218007612720427  9.2085177960407911 12.4083010717629385   T   T   T
 20.3800708754628452 10.7432707620475885 12.4083010717629385   T   T   T
 23.0383409896536548 12.2780237280543876 12.4083010717629385   T   T   T
 25.6966111038444573 13.8127766940611867 12.4083010717629385   T   T   T
 28.3548812180352598 15.3475296600679840 12.4083010717629385   T   T   T
  9.7469904186996299 16.8822826260747796 12.4083010717629385   T   T   T
  7.0887203045088150  0.0000000000000000 12.4083010717629367   T   T   T
  9.7469904186996210  1.5347529660067984 12.4083010717629367   T   T   T
 12.4052605328904253  3.0695059320135969 12.4083010717629367   T   T   T
 15.0635306470812331  4.6042588980203956 12.4083010717629385   T   T   T
 17.7218007612720356  6.1390118640271938 12.4083010717629385   T   T   T
 20.3800708754628452  7.6737648300339920 12.4083010717629385   T   T   T
 23.0383409896536548  9.2085177960407911 12.4083010717629385   T   T   T
 25.6966111038444573 10.7432707620475885 12.4083010717629385   T   T   T
  7.0887203045088185 12.2780237280543876 12.4083010717629367   T   T   T
 12.4052605328904271  0.0000000000000000 12.4083010717629367   T   T   T
 15.0635306470812331  1.5347529660067984 12.4083010717629385   T   T   T
 17.7218007612720356  3.0695059320135969 12.4083010717629385   T   T   T
 20.3800708754628381  4.6042588980203956 12.4083010717629385   T   T   T
 23.0383409896536513  6.1390118640271938 12.4083010717629385   T   T   T
  4.4304501903180107  7.6737648300339920 12.4083010717629367   T   T   T
 17.7218007612720392  0.0000000000000000 12.4083010717629385   T   T   T
 20.3800708754628452  1.5347529660067980 12.4083010717629385   T   T   T
  1.7721800761272042  3.0695059320135964 12.4083010717629367   T   T   T
  9.7469904186996246 13.8127766940611867 26.4083010717629278   T   T   T
 12.4052605328904306 15.3475296600679840 26.4083010717629278   T   T   T
 15.0635306470812367 16.8822826260747796 26.4083010717629278   T   T   T
  7.0887203045088159  9.2085177960407911 26.4083010717629278   T   T   T
  9.7469904186996228 10.7432707620475885 26.4083010717629278   T   T   T
 12.4052605328904306 12.2780237280543876 26.4083010717629278   T   T   T
 15.0635306470812331 13.8127766940611867 26.4083010717629278   T   T   T
 17.7218007612720356 15.3475296600679840 26.4083010717629278   T   T   T
 20.3800708754628488 16.8822826260747796 26.4083010717629314   T   T   T
  4.4304501903180098  4.6042588980203956 26.4083010717629278   T   T   T
  7.0887203045088150  6.1390118640271938 26.4083010717629278   T   T   T
  9.7469904186996228  7.6737648300339920 26.4083010717629278   T   T   T
 12.4052605328904306  9.2085177960407911 26.4083010717629278   T   T   T
 15.0635306470812331 10.7432707620475885 26.4083010717629278   T   T   T
 17.7218007612720356 12.2780237280543876 26.4083010717629278   T   T   T
 20.3800708754628417 13.8127766940611867 26.4083010717629278   T   T   T
 23.0383409896536548 15.3475296600679840 26.4083010717629314   T   T   T
 25.6966111038444573 16.8822826260747796 26.4083010717629314   T   T   T
  1.7721800761272037  0.0000000000000000 26.4083010717629278   T   T   T
  4.4304501903180107  1.5347529660067984 26.4083010717629278   T   T   T
  7.0887203045088159  3.0695059320135969 26.4083010717629278   T   T   T
  9.7469904186996210  4.6042588980203956 26.4083010717629278   T   T   T
 12.4052605328904288  6.1390118640271938 26.4083010717629278   T   T   T
 15.0635306470812331  7.6737648300339920 26.4083010717629278   T   T   T
 17.7218007612720427  9.2085177960407911 26.4083010717629278   T   T   T
 20.3800708754628452 10.7432707620475885 26.4083010717629278   T   T   T
 23.0383409896536548 12.2780237280543876 26.4083010717629314   T   T   T
 25.6966111038444573 13.8127766940611867 26.4083010717629314   T   T   T
 28.3548812180352598 15.3475296600679840 26.4083010717629314   T   T   T
  9.7469904186996299 16.8822826260747796 26.4083010717629278   T   T   T
  7.0887203045088150  0.0000000000000000 26.4083010717629278   T   T   T
  9.7469904186996210  1.5347529660067984 26.4083010717629278   T   T   T
 12.4052605328904253  3.0695059320135969 26.4083010717629278   T   T   T
 15.0635306470812331  4.6042588980203956 26.4083010717629278   T   T   T
 17.7218007612720356  6.1390118640271938 26.4083010717629278   T   T   T
 20.3800708754628452  7.6737648300339920 26.4083010717629278   T   T   T
 23.0383409896536548  9.2085177960407911 26.4083010717629278   T   T   T
 25.6966111038444573 10.7432707620475885 26.4083010717629314   T   T   T
  7.0887203045088185 12.2780237280543876 26.4083010717629278   T   T   T
 12.4052605328904271  0.0000000000000000 26.4083010717629278   T   T   T
 15.0635306470812331  1.5347529660067984 26.4083010717629278   T   T   T
 17.7218007612720356  3.0695059320135969 26.4083010717629278   T   T   T
 20.3800708754628381  4.6042588980203956 26.4083010717629278   T   T   T
 23.0383409896536513  6.1390118640271938 26.4083010717629278   T   T   T
  4.4304501903180107  7.6737648300339920 26.4083010717629278   T   T   T
 17.7218007612720392  0.0000000000000000 26.4083010717629278   T   T   T
 20.3800708754628452  1.5347529660067980 26.4083010717629278   T   T   T
  1.7721800761272042  3.0695059320135964 26.4083010717629278   T   T   T
 14.0878106982093634  7.1197253775751195 53.2083010717629321   T   T   T
 16.4878106982093620  7.1197253775751195 53.2083010717629321   T   T   T
