Mo S  Mo S  Mo S  Mo S  Mo S  Mo S  Mo S  Mo S  Mo S 
 1.0000000000000000
     9.4800000000000004    0.0000000000000000    0.0000000000000000
    -4.7400000000000002    8.2099208278764770    0.0000000000000000
     0.0000000000000000   -0.0000000000000000   23.1900000000000013
 Mo  S   Mo  S   Mo  S   Mo  S   Mo  S   Mo  S   Mo  S   Mo  S   Mo  S  
   1   2   1   2   1   2   1   2   1   1   1   2   1   2   1   2   1   2
Selective dynamics
Cartesian
  0.0000000000000000  0.0000000000000000 11.5950000000000006   T   T   T
  1.5799999999999998  0.9122134253196086 13.1900000000000013   T   T   T
  1.5799999999999998  0.9122134253196086 10.0000000000000000   F   F   F
 -1.5800000000000001  2.7366402759588260 11.5950000000000006   T   T   T
 -0.0000000000000002  3.6488537012784343 13.1900000000000013   T   T   T
 -0.0000000000000002  3.6488537012784343 10.0000000000000000   F   F   F
 -3.1600000000000001  5.4732805519176519 11.5950000000000006   T   T   T
 -1.5800000000000003  6.3854939772372603 13.1900000000000013   T   T   T
 -1.5800000000000003  6.3854939772372603 10.0000000000000000   F   F   F
  3.1600000000000001  0.0000000000000000 11.5950000000000006   T   T   T
  4.7400000000000002  0.9122134253196086 13.1900000000000013   T   T   T
  4.7400000000000002  0.9122134253196086 10.0000000000000000   F   F   F
  1.5800000000000001  2.7366402759588260 11.5950000000000006   T   T   T
  3.1600000000000001  3.6488537012784343 10.0000000000000000   F   F   F
  0.0000000000000000  5.4732805519176519 11.5950000000000006   T   T   T
  1.5799999999999998  6.3854939772372603 13.1900000000000013   T   T   T
  1.5799999999999998  6.3854939772372603 10.0000000000000000   F   F   F
  6.3200000000000003  0.0000000000000000 11.5950000000000006   T   T   T
  7.9000000000000004  0.9122134253196086 13.1900000000000013   T   T   T
  7.9000000000000004  0.9122134253196086 10.0000000000000000   F   F   F
  4.7400000000000002  2.7366402759588260 11.5950000000000006   T   T   T
  6.3200000000000003  3.6488537012784343 13.1900000000000013   T   T   T
  6.3200000000000003  3.6488537012784343 10.0000000000000000   F   F   F
  3.1600000000000001  5.4732805519176519 11.5950000000000006   T   T   T
  4.7400000000000002  6.3854939772372603 13.1900000000000013   T   T   T
  4.7400000000000002  6.3854939772372603 10.0000000000000000   F   F   F
