Ti Ni C  O  Ru
 1.0000000000000000
    10.5600000000000005    0.0000000000000000    0.0000000000000006
     5.2800000000000011   12.3199999999999985    0.0000000000000008
     0.0000000000000000    0.0000000000000000   46.6400000000000077
 Ti  Ni  C   O   Ru 
  48 168  32  32   4
Selective dynamics
Cartesian
  4.4000000000000012  1.5399999999999994 31.6799999999999997   T   T   T
  7.0400000000000009  3.0799999999999992 31.6799999999999997   T   T   T
  9.6800000000000033  4.6199999999999983 31.6799999999999997   T   T   T
  9.6800000000000015  1.5400000000000005 31.6799999999999997   T   T   T
  1.7600000000000005  3.0799999999999996 31.6799999999999997   T   T   T
  4.4000000000000012  4.6200000000000001 31.6799999999999997   T   T   T
  7.0400000000000000  6.1599999999999993 31.6799999999999997   T   T   T
  9.6800000000000033  7.6999999999999993 31.6799999999999997   T   T   T
 12.3200000000000038  9.2399999999999984 31.6799999999999997   T   T   T
 12.3200000000000003  6.1599999999999984 31.6799999999999997   T   T   T
  4.4000000000000004  7.6999999999999993 31.6799999999999997   T   T   T
  7.0400000000000027  9.2400000000000020 31.6799999999999997   T   T   T
  9.6800000000000033 10.7799999999999994 31.6799999999999997   T   T   T
  7.0400000000000000  0.0000000000000003 31.6799999999999997   T   T   T
 14.9600000000000026 10.7799999999999994 31.6799999999999997   T   T   T
  1.7600000000000007  0.0000000000000000 31.6799999999999997   T   T   T
  6.1600000000000019  1.5399999999999994 29.6799999999999997   T   T   T
  8.8000000000000025  3.0799999999999987 29.6799999999999997   T   T   T
 11.4400000000000013  4.6200000000000010 29.6799999999999997   T   T   T
  0.8800000000000002  1.5399999999999998 29.6799999999999997   T   T   T
  3.5200000000000005  3.0799999999999996 29.6799999999999997   T   T   T
  6.1600000000000019  4.6199999999999992 29.6799999999999997   T   T   T
  8.8000000000000007  6.1599999999999993 29.6799999999999997   T   T   T
 11.4400000000000031  7.6999999999999993 29.6799999999999997   T   T   T
 14.0800000000000036  9.2400000000000020 29.6799999999999997   T   T   T
  3.5200000000000009  6.1599999999999993 29.6799999999999997   T   T   T
  6.1600000000000019  7.7000000000000002 29.6799999999999997   T   T   T
  8.8000000000000025  9.2400000000000002 29.6799999999999997   T   T   T
 11.4400000000000013 10.7800000000000011 29.6799999999999997   T   T   T
  8.8000000000000007  0.0000000000000000 29.6799999999999997   T   T   T
  6.1600000000000019 10.7799999999999994 29.6799999999999997   T   T   T
  3.5200000000000005  0.0000000000000000 29.6799999999999997   T   T   T
  5.2800000000000002  0.0000000000000000 27.6799999999999962   T   T   T
  7.9200000000000017  1.5399999999999998 27.6799999999999962   T   T   T
 10.5600000000000023  3.0799999999999987 27.6799999999999962   T   T   T
  0.0000000000000000  0.0000000000000000 27.6799999999999962   T   T   T
  2.6400000000000001  1.5399999999999998 27.6799999999999962   T   T   T
  5.2800000000000002  3.0799999999999996 27.6799999999999962   T   T   T
  7.9200000000000008  4.6200000000000010 27.6799999999999962   T   T   T
 10.5600000000000005  6.1599999999999993 27.6799999999999962   T   T   T
 13.2000000000000011  7.6999999999999993 27.6799999999999962   T   T   T
  2.6400000000000006  4.6200000000000001 27.6799999999999962   T   T   T
  5.2800000000000011  6.1599999999999993 27.6799999999999962   T   T   T
  7.9200000000000017  7.6999999999999993 27.6799999999999962   T   T   T
 10.5600000000000023  9.2399999999999984 27.6799999999999962   T   T   T
 13.2000000000000011 10.7799999999999994 27.6799999999999962   T   T   T
  5.2800000000000011  9.2400000000000002 27.6799999999999962   T   T   T
  7.9200000000000017 10.7799999999999994 27.6799999999999962   T   T   T
  7.0400000000000000  0.0000000000000000 22.7200000000000060   T   T   T
  8.8000000000000007  1.7600000000000000 22.7200000000000060   T   T   T
 10.5600000000000041  3.5199999999999996 22.7200000000000060   T   T   T
 12.3200000000000021  5.2799999999999985 22.7200000000000060   T   T   T
  3.5200000000000000  0.0000000000000000 22.7200000000000060   T   T   T
  5.2800000000000020  1.7599999999999998 22.7200000000000060   T   T   T
  7.0400000000000000  3.5199999999999996 22.7200000000000060   T   T   T
  8.8000000000000007  5.2799999999999985 22.7200000000000060   T   T   T
 10.5599999999999987  7.0399999999999991 22.7200000000000060   T   T   T
 12.3200000000000021  8.7999999999999972 22.7200000000000060   T   T   T
 14.0800000000000018 10.5599999999999969 22.7200000000000060   T   T   T
  0.0000000000000000  0.0000000000000000 22.7200000000000060   T   T   T
  1.7600000000000002  1.7599999999999998 22.7200000000000060   T   T   T
  3.5200000000000005  3.5199999999999996 22.7200000000000060   T   T   T
  5.2799999999999994  5.2799999999999985 22.7200000000000060   T   T   T
  7.0400000000000009  7.0399999999999991 22.7200000000000060   T   T   T
  8.8000000000000007  8.7999999999999972 22.7200000000000060   T   T   T
 10.5599999999999987 10.5599999999999969 22.7200000000000060   T   T   T
  3.5200000000000005  7.0399999999999991 22.7200000000000060   T   T   T
  5.2800000000000002  8.7999999999999972 22.7200000000000060   T   T   T
  7.0400000000000009 10.5599999999999969 22.7200000000000060   T   T   T
  7.0400000000000000  1.7599999999999998 24.4800000000000040   T   T   T
  8.8000000000000007  3.5199999999999996 24.4800000000000040   T   T   T
 10.5600000000000041  5.2799999999999985 24.4800000000000040   T   T   T
 12.3200000000000021  7.0399999999999991 24.4800000000000040   T   T   T
  3.5200000000000000  1.7599999999999998 24.4800000000000040   T   T   T
  5.2800000000000011  3.5199999999999996 24.4800000000000040   T   T   T
  7.0400000000000009  5.2799999999999985 24.4800000000000040   T   T   T
  8.8000000000000007  7.0399999999999991 24.4800000000000040   T   T   T
 10.5600000000000005  8.7999999999999989 24.4800000000000040   T   T   T
 12.3200000000000021 10.5599999999999969 24.4800000000000040   T   T   T
 14.0799999999999983 12.3199999999999967 24.4800000000000040   T   T   T
 10.5600000000000005  1.7600000000000000 24.4800000000000040   T   T   T
  1.7600000000000002  3.5199999999999996 24.4800000000000040   T   T   T
  3.5200000000000005  5.2799999999999994 24.4800000000000040   T   T   T
  5.2800000000000002  7.0399999999999991 24.4800000000000040   T   T   T
  7.0400000000000009  8.7999999999999989 24.4800000000000040   T   T   T
  8.8000000000000007 10.5599999999999969 24.4800000000000040   T   T   T
 10.5599999999999987 12.3199999999999967 24.4800000000000040   T   T   T
 14.0800000000000018  8.7999999999999989 24.4800000000000040   T   T   T
  5.2800000000000002 10.5599999999999969 24.4800000000000040   T   T   T
  7.0400000000000009 12.3199999999999967 24.4800000000000040   T   T   T
  7.0400000000000000  0.0000000000000000 19.1999999999999993   T   T   T
  8.8000000000000007  1.7600000000000000 19.1999999999999993   T   T   T
 10.5600000000000041  3.5199999999999996 19.1999999999999993   T   T   T
 12.3200000000000021  5.2799999999999985 19.1999999999999993   T   T   T
  3.5200000000000000  0.0000000000000000 19.1999999999999993   T   T   T
  5.2800000000000020  1.7599999999999998 19.1999999999999993   T   T   T
  7.0400000000000000  3.5199999999999996 19.1999999999999993   T   T   T
  8.8000000000000007  5.2799999999999985 19.1999999999999993   T   T   T
 10.5599999999999987  7.0399999999999991 19.1999999999999993   T   T   T
 12.3200000000000021  8.7999999999999972 19.1999999999999993   T   T   T
 14.0800000000000018 10.5599999999999969 19.1999999999999993   T   T   T
  0.0000000000000000  0.0000000000000000 19.1999999999999993   T   T   T
  1.7600000000000002  1.7599999999999998 19.1999999999999993   T   T   T
  3.5200000000000005  3.5199999999999996 19.1999999999999993   T   T   T
  5.2799999999999994  5.2799999999999985 19.1999999999999993   T   T   T
  7.0400000000000009  7.0399999999999991 19.1999999999999993   T   T   T
  8.8000000000000007  8.7999999999999972 19.1999999999999993   T   T   T
 10.5599999999999987 10.5599999999999969 19.1999999999999993   T   T   T
  3.5200000000000005  7.0399999999999991 19.1999999999999993   T   T   T
  5.2800000000000002  8.7999999999999972 19.1999999999999993   T   T   T
  7.0400000000000009 10.5599999999999969 19.1999999999999993   T   T   T
  7.0400000000000000  1.7599999999999998 20.9600000000000044   T   T   T
  8.8000000000000007  3.5199999999999996 20.9600000000000044   T   T   T
 10.5600000000000041  5.2799999999999985 20.9600000000000044   T   T   T
 12.3200000000000021  7.0399999999999991 20.9600000000000044   T   T   T
  3.5200000000000000  1.7599999999999998 20.9600000000000044   T   T   T
  5.2800000000000011  3.5199999999999996 20.9600000000000044   T   T   T
  7.0400000000000009  5.2799999999999985 20.9600000000000044   T   T   T
  8.8000000000000007  7.0399999999999991 20.9600000000000044   T   T   T
 10.5600000000000005  8.7999999999999989 20.9600000000000044   T   T   T
 12.3200000000000021 10.5599999999999969 20.9600000000000044   T   T   T
 14.0799999999999983 12.3199999999999967 20.9600000000000044   T   T   T
 10.5600000000000005  1.7600000000000000 20.9600000000000044   T   T   T
  1.7600000000000002  3.5199999999999996 20.9600000000000044   T   T   T
  3.5200000000000005  5.2799999999999994 20.9600000000000044   T   T   T
  5.2800000000000002  7.0399999999999991 20.9600000000000044   T   T   T
  7.0400000000000009  8.7999999999999989 20.9600000000000044   T   T   T
  8.8000000000000007 10.5599999999999969 20.9600000000000044   T   T   T
 10.5599999999999987 12.3199999999999967 20.9600000000000044   T   T   T
 14.0800000000000018  8.7999999999999989 20.9600000000000044   T   T   T
  5.2800000000000002 10.5599999999999969 20.9600000000000044   T   T   T
  7.0400000000000009 12.3199999999999967 20.9600000000000044   T   T   T
  7.0400000000000000  0.0000000000000000 15.6800000000000015   F   F   F
  8.8000000000000007  1.7600000000000000 15.6800000000000015   F   F   F
 10.5600000000000041  3.5199999999999996 15.6800000000000015   F   F   F
 12.3200000000000021  5.2799999999999985 15.6800000000000015   F   F   F
  3.5200000000000000  0.0000000000000000 15.6800000000000015   F   F   F
  5.2800000000000020  1.7599999999999998 15.6800000000000015   F   F   F
  7.0400000000000000  3.5199999999999996 15.6800000000000015   F   F   F
  8.8000000000000007  5.2799999999999985 15.6800000000000015   F   F   F
 10.5599999999999987  7.0399999999999991 15.6800000000000015   F   F   F
 12.3200000000000021  8.7999999999999972 15.6800000000000015   F   F   F
 14.0800000000000018 10.5599999999999969 15.6800000000000015   F   F   F
  0.0000000000000000  0.0000000000000000 15.6800000000000015   F   F   F
  1.7600000000000002  1.7599999999999998 15.6800000000000015   F   F   F
  3.5200000000000005  3.5199999999999996 15.6800000000000015   F   F   F
  5.2799999999999994  5.2799999999999985 15.6800000000000015   F   F   F
  7.0400000000000009  7.0399999999999991 15.6800000000000015   F   F   F
  8.8000000000000007  8.7999999999999972 15.6800000000000015   F   F   F
 10.5599999999999987 10.5599999999999969 15.6800000000000015   F   F   F
  3.5200000000000005  7.0399999999999991 15.6800000000000015   F   F   F
  5.2800000000000002  8.7999999999999972 15.6800000000000015   F   F   F
  7.0400000000000009 10.5599999999999969 15.6800000000000015   F   F   F
  7.0400000000000000  1.7599999999999998 17.4400000000000048   F   F   F
  8.8000000000000007  3.5199999999999996 17.4400000000000048   F   F   F
 10.5600000000000041  5.2799999999999985 17.4400000000000048   F   F   F
 12.3200000000000021  7.0399999999999991 17.4400000000000048   F   F   F
  3.5200000000000000  1.7599999999999998 17.4400000000000048   F   F   F
  5.2800000000000011  3.5199999999999996 17.4400000000000048   F   F   F
  7.0400000000000009  5.2799999999999985 17.4400000000000048   F   F   F
  8.8000000000000007  7.0399999999999991 17.4400000000000048   F   F   F
 10.5600000000000005  8.7999999999999989 17.4400000000000048   F   F   F
 12.3200000000000021 10.5599999999999969 17.4400000000000048   F   F   F
 14.0799999999999983 12.3199999999999967 17.4400000000000048   F   F   F
 10.5600000000000005  1.7600000000000000 17.4400000000000048   F   F   F
  1.7600000000000002  3.5199999999999996 17.4400000000000048   F   F   F
  3.5200000000000005  5.2799999999999994 17.4400000000000048   F   F   F
  5.2800000000000002  7.0399999999999991 17.4400000000000048   F   F   F
  7.0400000000000009  8.7999999999999989 17.4400000000000048   F   F   F
  8.8000000000000007 10.5599999999999969 17.4400000000000048   F   F   F
 10.5599999999999987 12.3199999999999967 17.4400000000000048   F   F   F
 14.0800000000000018  8.7999999999999989 17.4400000000000048   F   F   F
  5.2800000000000002 10.5599999999999969 17.4400000000000048   F   F   F
  7.0400000000000009 12.3199999999999967 17.4400000000000048   F   F   F
  7.0400000000000000  0.0000000000000000 12.1600000000000019   F   F   F
  8.8000000000000007  1.7600000000000000 12.1600000000000019   F   F   F
 10.5600000000000041  3.5199999999999996 12.1600000000000019   F   F   F
 12.3200000000000021  5.2799999999999985 12.1600000000000055   F   F   F
  3.5200000000000000  0.0000000000000000 12.1600000000000019   F   F   F
  5.2800000000000020  1.7599999999999998 12.1600000000000019   F   F   F
  7.0400000000000000  3.5199999999999996 12.1600000000000019   F   F   F
  8.8000000000000007  5.2799999999999985 12.1600000000000019   F   F   F
 10.5599999999999987  7.0399999999999991 12.1600000000000055   F   F   F
 12.3200000000000021  8.7999999999999972 12.1600000000000055   F   F   F
 14.0800000000000018 10.5599999999999969 12.1600000000000055   F   F   F
  0.0000000000000000  0.0000000000000000 12.1600000000000019   F   F   F
  1.7600000000000002  1.7599999999999998 12.1600000000000019   F   F   F
  3.5200000000000005  3.5199999999999996 12.1600000000000019   F   F   F
  5.2799999999999994  5.2799999999999985 12.1600000000000019   F   F   F
  7.0400000000000009  7.0399999999999991 12.1600000000000019   F   F   F
  8.8000000000000007  8.7999999999999972 12.1600000000000055   F   F   F
 10.5599999999999987 10.5599999999999969 12.1600000000000055   F   F   F
  3.5200000000000005  7.0399999999999991 12.1600000000000019   F   F   F
  5.2800000000000002  8.7999999999999972 12.1600000000000019   F   F   F
  7.0400000000000009 10.5599999999999969 12.1600000000000019   F   F   F
  7.0400000000000000  1.7599999999999998 13.9199999999999999   F   F   F
  8.8000000000000007  3.5199999999999996 13.9199999999999999   F   F   F
 10.5600000000000041  5.2799999999999985 13.9199999999999999   F   F   F
 12.3200000000000021  7.0399999999999991 13.9199999999999999   F   F   F
  3.5200000000000000  1.7599999999999998 13.9199999999999999   F   F   F
  5.2800000000000011  3.5199999999999996 13.9199999999999999   F   F   F
  7.0400000000000009  5.2799999999999985 13.9199999999999999   F   F   F
  8.8000000000000007  7.0399999999999991 13.9199999999999999   F   F   F
 10.5600000000000005  8.7999999999999989 13.9199999999999999   F   F   F
 12.3200000000000021 10.5599999999999969 13.9199999999999999   F   F   F
 14.0799999999999983 12.3199999999999967 13.9199999999999999   F   F   F
 10.5600000000000005  1.7600000000000000 13.9199999999999999   F   F   F
  1.7600000000000002  3.5199999999999996 13.9199999999999999   F   F   F
  3.5200000000000005  5.2799999999999994 13.9199999999999999   F   F   F
  5.2800000000000002  7.0399999999999991 13.9199999999999999   F   F   F
  7.0400000000000009  8.7999999999999989 13.9199999999999999   F   F   F
  8.8000000000000007 10.5599999999999969 13.9199999999999999   F   F   F
 10.5599999999999987 12.3199999999999967 13.9199999999999999   F   F   F
 14.0800000000000018  8.7999999999999989 13.9199999999999999   F   F   F
  5.2800000000000002 10.5599999999999969 13.9199999999999999   F   F   F
  7.0400000000000009 12.3199999999999967 13.9199999999999999   F   F   F
  5.2800000000000002  0.0000000000000000 30.6799999999999997   T   T   T
  7.9200000000000017  1.5399999999999998 30.6799999999999997   T   T   T
 10.5600000000000023  3.0799999999999987 30.6799999999999997   T   T   T
  0.0000000000000000  0.0000000000000000 30.6799999999999997   T   T   T
  2.6400000000000001  1.5399999999999998 30.6799999999999997   T   T   T
  5.2800000000000002  3.0799999999999996 30.6799999999999997   T   T   T
  7.9200000000000008  4.6200000000000010 30.6799999999999997   T   T   T
 10.5600000000000005  6.1599999999999993 30.6799999999999997   T   T   T
 13.2000000000000011  7.6999999999999993 30.6799999999999997   T   T   T
  2.6400000000000006  4.6200000000000001 30.6799999999999997   T   T   T
  5.2800000000000011  6.1599999999999993 30.6799999999999997   T   T   T
  7.9200000000000017  7.6999999999999993 30.6799999999999997   T   T   T
 10.5600000000000023  9.2399999999999984 30.6799999999999997   T   T   T
 13.2000000000000011 10.7799999999999994 30.6799999999999997   T   T   T
  5.2800000000000011  9.2400000000000002 30.6799999999999997   T   T   T
  7.9200000000000017 10.7799999999999994 30.6799999999999997   T   T   T
  4.4000000000000012  1.5399999999999994 28.6799999999999962   T   T   T
  7.0400000000000009  3.0799999999999992 28.6799999999999962   T   T   T
  9.6800000000000033  4.6199999999999983 28.6799999999999962   T   T   T
  9.6800000000000015  1.5400000000000005 28.6799999999999962   T   T   T
  1.7600000000000005  3.0799999999999996 28.6799999999999962   T   T   T
  4.4000000000000012  4.6200000000000001 28.6799999999999962   T   T   T
  7.0400000000000000  6.1599999999999993 28.6799999999999962   T   T   T
  9.6800000000000033  7.6999999999999993 28.6799999999999962   T   T   T
 12.3200000000000038  9.2399999999999984 28.6799999999999962   T   T   T
 12.3200000000000003  6.1599999999999984 28.6799999999999962   T   T   T
  4.4000000000000004  7.6999999999999993 28.6799999999999962   T   T   T
  7.0400000000000027  9.2400000000000020 28.6799999999999962   T   T   T
  9.6800000000000033 10.7799999999999994 28.6799999999999962   T   T   T
  7.0400000000000000  0.0000000000000003 28.6799999999999962   T   T   T
 14.9600000000000026 10.7799999999999994 28.6799999999999962   T   T   T
  1.7600000000000007  0.0000000000000000 28.6799999999999962   T   T   T
  6.1600000000000019  1.5399999999999994 32.6800000000000068   T   T   T
  8.8000000000000025  3.0799999999999987 32.6800000000000068   T   T   T
 11.4400000000000013  4.6200000000000010 32.6800000000000068   T   T   T
  0.8800000000000002  1.5399999999999998 32.6800000000000068   T   T   T
  3.5200000000000005  3.0799999999999996 32.6800000000000068   T   T   T
  6.1600000000000019  4.6199999999999992 32.6800000000000068   T   T   T
  8.8000000000000007  6.1599999999999993 32.6800000000000068   T   T   T
 11.4400000000000031  7.6999999999999993 32.6800000000000068   T   T   T
 14.0800000000000036  9.2400000000000020 32.6800000000000068   T   T   T
  3.5200000000000009  6.1599999999999993 32.6800000000000068   T   T   T
  6.1600000000000019  7.7000000000000002 32.6800000000000068   T   T   T
  8.8000000000000025  9.2400000000000002 32.6800000000000068   T   T   T
 11.4400000000000013 10.7800000000000011 32.6800000000000068   T   T   T
  8.8000000000000007  0.0000000000000000 32.6800000000000068   T   T   T
  6.1600000000000019 10.7799999999999994 32.6800000000000068   T   T   T
  3.5200000000000005  0.0000000000000000 32.6800000000000068   T   T   T
  6.1600000000000019  1.5399999999999994 26.6799999999999997   T   T   T
  8.8000000000000025  3.0799999999999987 26.6799999999999997   T   T   T
 11.4400000000000013  4.6200000000000010 26.6799999999999997   T   T   T
  0.8800000000000002  1.5399999999999998 26.6799999999999997   T   T   T
  3.5200000000000005  3.0799999999999996 26.6799999999999997   T   T   T
  6.1600000000000019  4.6199999999999992 26.6799999999999997   T   T   T
  8.8000000000000007  6.1599999999999993 26.6799999999999997   T   T   T
 11.4400000000000031  7.6999999999999993 26.6799999999999997   T   T   T
 14.0800000000000036  9.2400000000000020 26.6799999999999997   T   T   T
  3.5200000000000009  6.1599999999999993 26.6799999999999997   T   T   T
  6.1600000000000019  7.7000000000000002 26.6799999999999997   T   T   T
  8.8000000000000025  9.2400000000000002 26.6799999999999997   T   T   T
 11.4400000000000013 10.7800000000000011 26.6799999999999997   T   T   T
  8.8000000000000007  0.0000000000000000 26.6799999999999997   T   T   T
  6.1600000000000019 10.7799999999999994 26.6799999999999997   T   T   T
  3.5200000000000005  0.0000000000000000 26.6799999999999997   T   T   T
  6.4685714285714164  4.6519999999999841 34.4800000000000040   T   T   T
  6.4685714285714164  7.0519999999999845 34.4800000000000040   T   T   T
  8.8685714285714159  4.6519999999999841 34.4800000000000040   T   T   T
  8.8685714285714159  7.0519999999999845 34.4800000000000040   T   T   T
