Mo Au Mo C  Mo C  Mo C  Mo C 
 1.0000000000000000
    15.0092991375339153    0.0000000000000000   -3.0135320472866400
     5.7474286961053700   12.7751951324563571   -1.0079944002065864
     0.0000000000000000    0.0000000000000000   31.2869582206291241
 Mo  Au  Mo  C   Mo  C   Mo  C   Mo  C  
  20   1   3  12  24  12  24  12  24  12
Selective dynamics
Cartesian
  2.3331953142764865  0.0872971667384517 14.5346310777408050   T   T   T
  5.7926499532163680  2.2164963554811776 16.9479916839856877   T   T   T
  9.2521045921562504  4.3456955442239034 10.1105072477493145   F   F   F
  9.9705331791694185  5.9425949357809484 16.9226417295844307   T   T   T
  3.0516239012896587  1.6841965582954967 12.0959205170946706   F   F   F
  6.5110785402295406  3.8133957470382223 14.5092811233395551   T   T   T
  2.5631164986897366  5.2357008051183644 14.2882666278409189   T   T   T
  3.1488567895769330  0.9773024276329119 17.2056244341890938   T   T   T
  6.6083114285168145  3.1065016163756374 10.3681399979527207   F   F   F
  4.4884810753160007  4.8779953414095871 16.4693444382836489   T   T   T
  5.0742213662031972  0.6195969639241345 10.1358572021505697   F   F   F
  8.5336760051430787  2.7487961526668605 12.5492178083954489   F   F   F
  0.4078307376502232  0.4450026304472299 12.3535532672980768   F   F   F
  3.8672853765901047  2.5742018191899558 14.7669138735429541   T   T   T
  7.3267400155299862  4.7034010079326816 17.1802744797878404   T   T   T
  7.8152474181299070  1.1518967611098145 14.9879283690415868   T   T   T
  3.7700524883028299  3.2810959498525407 18.9080549989297886   T   T   T
  7.2295071272427105  5.4102951385952656 12.0705705626934137   F   F   F
  5.8898828415036411  1.5096022248185932 12.8068505585988568   F   F   F
  1.8446879116765655  3.6388014135613180 16.7269771884870586   T   T   T
  5.3041425506164472  5.7680006023040438 19.1403377947319377   T   T   T
  8.0451686025431552  6.3003003994897275 14.7415639191417007   T   T   T
  1.1262593246633941  2.0419020220042752 19.1656877491331947   T   T   T
  4.5857139636032755  4.1711012107470005 12.3282033128968216   F   F   F
  0.3592142935065858  0.7984496957785227 14.4241238299914905   T   T   T
  3.8186689324464673  2.9276488845212487 16.8374844362363731   T   T   T
  7.2781235713863488  5.0568480732639740 10.0000000000000000   F   F   F
  2.5145000545460992  5.5891478704496560 16.3588371905343344   T   T   T
  3.1002403454332961  1.3307494929642041 19.2761949968825093   T   T   T
  6.5596949843731780  3.4599486817069289 12.4387105606461379   F   F   F
  2.8073701999896974  3.4599486817069307 13.1920935724677939   F   F   F
  6.2668248389295780  5.5891478704496560 15.6054541787126766   T   T   T
  6.8525651298167753  1.3307494929642034 18.5228119850608515   T   T   T
  4.1115390778900647  0.7984496957785227 13.6707408181698327   T   T   T
  7.5709937168299444  2.9276488845212487 16.0841014244147118   T   T   T
  3.5257987870028686  5.0568480732639740 10.7533830118216578   F   F   F
  5.2069096623291715  6.4748947329666304 14.0306338776375128   T   T   T
  8.6663643012690521  8.6040939217093566 16.4439944838823955   T   T   T
 12.1258189402089354 10.7332931104520810  9.6065100476460206   F   F   F
 12.8442475272221035 12.3301925020091261 16.4186445294811385   T   T   T
  5.9253382493423441  8.0717941245236755 11.5919233169913767   F   F   F
  9.3847928882822256 10.2009933132664017 14.0052839232362629   T   T   T
  5.4368308467424216 11.6232983713465430 13.7842694277376268   T   T   T
  6.0225711376296180  7.3648999938610906 16.7016272340858016   T   T   T
  9.4820257765695004  9.4940991826038150  9.8641427978494267   F   F   F
  7.3621954233686857 11.2655929076377657 15.9653472381803567   T   T   T
  7.9479357142558822  7.0071945301523133  9.6318600020472758   F   F   F
 11.4073903531957637  9.1363937188950395 12.0452206082921549   F   F   F
  3.2815450857029083  6.8326001966754086 11.8495560671947828   F   F   F
  6.7409997246427897  8.9617993854181339 14.2629166734396620   T   T   T
 10.2004543635826721 11.0909985741608601 16.6762772796845482   T   T   T
 10.6889617661825920  7.5394943273379926 14.4839311689382946   T   T   T
  6.6437668363555149  9.6686935160807188 18.4040577988264964   T   T   T
 10.1032214752953955 11.7978927048234432 11.5665733625901197   F   F   F
  8.7635971895563252  7.8971997910467717 12.3028533584955628   F   F   F
  4.7184022597292508 10.0263989797894961 16.2229799883837664   T   T   T
  8.1778568986691322 12.1555981685322223 18.6363405946286456   T   T   T
 10.9188829505958402 12.6878979657179052 14.2375667190384085   T   T   T
  3.9999736727160791  8.4294995882324528 18.6616905490299025   T   T   T
  7.4594283116559605 10.5586987769751790 11.8242061127935276   F   F   F
  3.2329286415592708  7.1860472620067011 13.9201266298881983   T   T   T
  6.6923832804991523  9.3152464507494273 16.3334872361330810   T   T   T
 10.1518379194390338 11.4444456394921517  9.4960027998967060   F   F   F
  5.3882144025987841 11.9767454366778345 15.8548399904310422   T   T   T
  5.9739546934859806  7.7183470591923822 18.7721977967792171   T   T   T
  9.4334093324258639  9.8475462479351066 11.9347133605428439   F   F   F
  5.6810845480423824  9.8475462479351101 12.6880963723644999   F   F   F
  9.1405391869822630 11.9767454366778345 15.1014569786093844   T   T   T
  9.7262794778694612  7.7183470591923822 18.0188147849575593   T   T   T
  6.9852534259427497  7.1860472620067011 13.1667436180665405   F   F   F
 10.4447080648826294  9.3152464507494273 15.5801042243114196   T   T   T
  6.3995131350555532 11.4444456394921517 10.2493858117183638   F   F   F
  9.8378448830434451  0.0872971667384517 13.0278650540974859   F   F   F
 13.2972995219833265  2.2164963554811776 15.4412256603423685   T   T   T
 16.7567541609232080  4.3456955442239034  8.6037412241059954   F   F   F
 17.4751827479363762  5.9425949357809484 15.4158757059411116   T   T   T
 10.5562734700566168  1.6841965582954967 10.5891544934513497   F   F   F
 14.0157281089964982  3.8133957470382223 13.0025150996962360   F   F   F
 10.0677660674566951  5.2357008051183644 12.7815006041975998   F   F   F
 10.6535063583438898  0.9773024276329119 15.6988584105457747   T   T   T
 14.1129609972837713  3.1065016163756374  8.8613739743094015   F   F   F
 11.9931306440829584  4.8779953414095871 14.9625784146403298   T   T   T
 12.5788709349701548  0.6195969639241345  8.6290911785072488   F   F   F
 16.0383255739100363  2.7487961526668605 11.0424517847521280   F   F   F
  7.9124803064171809  0.4450026304472299 10.8467872436547559   F   F   F
 11.3719349453570615  2.5742018191899558 13.2601478498996350   F   F   F
 14.8313895842969430  4.7034010079326816 15.6735084561445213   T   T   T
 15.3198969868968646  1.1518967611098145 13.4811623453982676   F   F   F
 11.2747020570697885  3.2810959498525407 17.4012889752864695   T   T   T
 14.7341566960096682  5.4102951385952656 10.5638045390500928   F   F   F
 13.3945324102705996  1.5096022248185932 11.3000845349555377   F   F   F
  9.3493374804435234  3.6388014135613180 15.2202111648437395   T   T   T
 12.8087921193834049  5.7680006023040438 17.6335717710886186   T   T   T
 15.5498181713101129  6.3003003994897275 13.2347978954983816   F   F   F
  8.6309088934303517  2.0419020220042752 17.6589217254898756   T   T   T
 12.0903635323702332  4.1711012107470005 10.8214372892535025   F   F   F
  7.8638638622735435  0.7984496957785227 12.9173578063481713   F   F   F
 11.3233185012134250  2.9276488845212487 15.3307184125930540   T   T   T
 14.7827731401533065  5.0568480732639740  8.4932339763566809   F   F   F
 10.0191496233130568  5.5891478704496560 14.8520711668910153   T   T   T
 10.6048899142002533  1.3307494929642041 17.7694289732391901   T   T   T
 14.0643445531401348  3.4599486817069289 10.9319445370028170   F   F   F
 10.3120197687566559  3.4599486817069307 11.6853275488244748   F   F   F
 13.7714744076965356  5.5891478704496560 14.0986881550693575   T   T   T
 14.3572146985837321  1.3307494929642034 17.0160459614175323   T   T   T
 11.6161886466570223  0.7984496957785227 12.1639747945265135   F   F   F
 15.0756432855969020  2.9276488845212487 14.5773354007713927   T   T   T
 11.0304483557698259  5.0568480732639740  9.2466169881783387   F   F   F
 12.7115592310961283  6.4748947329666304 12.5238678539941919   F   F   F
 16.1710138700360098  8.6040939217093566 14.9372284602390728   T   T   T
 19.6304685089758948 10.7332931104520810  8.0997440240027014   F   F   F
 20.3488970959890594 12.3301925020091261 14.9118785058378158   T   T   T
 13.4299878181093018  8.0717941245236755 10.0851572933480576   F   F   F
 16.8894424570491850 10.2009933132664017 12.4985178995929420   F   F   F
 12.9414804155093783 11.6232983713465430 12.2775034040943058   F   F   F
 13.5272207063965766  7.3648999938610906 15.1948612104424789   T   T   T
 16.9866753453364581  9.4940991826038150  8.3573767742061076   F   F   F
 14.8668449921356434 11.2655929076377657 14.4585812145370376   T   T   T
 15.4525852830228398  7.0071945301523133  8.1250939784039566   F   F   F
 18.9120399219627231  9.1363937188950395 10.5384545846488358   F   F   F
 10.7861946544698650  6.8326001966754086 10.3427900435514637   F   F   F
 14.2456492934097483  8.9617993854181339 12.7561506497963411   F   F   F
 17.7051039323496298 11.0909985741608601 15.1695112560412291   T   T   T
 18.1936113349495514  7.5394943273379926 12.9771651452949737   F   F   F
 14.1484164051224717  9.6686935160807188 16.8972917751831737   T   T   T
 17.6078710440623531 11.7978927048234432 10.0598073389468006   F   F   F
 16.2682467583232828  7.8971997910467717 10.7960873348522437   F   F   F
 12.2230518284962084 10.0263989797894961 14.7162139647404437   T   T   T
 15.6825064674360899 12.1555981685322223 17.1295745709853229   T   T   T
 18.4235325193627979 12.6878979657179052 12.7308006953950876   F   F   F
 11.5046232414830367  8.4294995882324528 17.1549245253865799   T   T   T
 14.9640778804229182 10.5586987769751790 10.3174400891502085   F   F   F
 10.7375782103262285  7.1860472620067011 12.4133606062448774   F   F   F
 14.1970328492661100  9.3152464507494273 14.8267212124897618   T   T   T
 17.6564874882059897 11.4444456394921517  7.9892367762533869   F   F   F
 12.8928639713657418 11.9767454366778345 14.3480739667877195   T   T   T
 13.4786042622529383  7.7183470591923822 17.2654317731358979   T   T   T
 16.9380589011928215  9.8475462479351066 10.4279473368995248   F   F   F
 13.1857341168093392  9.8475462479351101 11.1813303487211808   F   F   F
 16.6451887557492206 11.9767454366778345 13.5946909549660653   F   F   F
 17.2309290466364189  7.7183470591923822 16.5120487613142366   T   T   T
 14.4899029947097073  7.1860472620067011 11.6599775944232196   F   F   F
 17.9493576336495870  9.3152464507494273 14.0733382006681005   T   T   T
 13.9041627038225108 11.4444456394921517  8.7426197880750447   F   F   F
