Mo C  Mo C  Mo C  Mo C  Mo C  Mo C  Mo C  Mo Ru Mo C 
 1.0000000000000000
    12.0440000000000005    0.0000000000000000   -0.0000000000000019
     0.0000000000000017   10.3900000000000006   -0.0000000000000017
     0.0000000000000000    0.0000000000000000   28.2687500000000007
 Mo  C   Mo  C   Mo  C   Mo  C   Mo  C   Mo  C   Mo  C   Mo  Ru  Mo  C  
   8   4   8   4   8   4   8   4   8   4   8   4   8   4   1   1   6   4
Selective dynamics
Cartesian
  5.2692500000000013  3.0286849999999998 12.3624999999999972   F   F   F
  0.7527500000000001  0.4311849999999998 12.3625000000000007   F   F   F
  3.7637500000000004  2.1663150000000004 10.0000000000000000   F   F   F
  3.7637499999999999  0.4311850000000015 12.3625000000000007   F   F   F
  5.2692500000000013  4.7638150000000001 10.0000000000000000   F   F   F
  2.2582500000000008  3.0286849999999998 12.3625000000000007   F   F   F
  2.2582500000000012  4.7638150000000001 10.0000000000000000   F   F   F
  0.7527500000000004  2.1663150000000004 10.0000000000000000   F   F   F
  3.7637500000000004  3.8962500000000002 11.1812499999999986   F   F   F
  2.2582500000000003  1.2987500000000001 11.1812499999999986   F   F   F
  5.2692500000000004  1.2987500000000001 13.5437499999999993   F   F   F
  0.7527500000000007  3.8962500000000002 13.5437499999999993   F   F   F
  5.2692500000000013  3.0286849999999998 17.0875000000000021   T   T   T
  0.7527500000000001  0.4311849999999998 17.0875000000000021   T   T   T
  3.7637500000000004  2.1663150000000004 14.7249999999999979   T   T   T
  3.7637499999999999  0.4311850000000015 17.0875000000000021   T   T   T
  5.2692500000000013  4.7638150000000001 14.7249999999999979   T   T   T
  2.2582500000000008  3.0286849999999998 17.0875000000000021   T   T   T
  2.2582500000000012  4.7638150000000001 14.7249999999999979   T   T   T
  0.7527500000000004  2.1663150000000004 14.7249999999999979   T   T   T
  3.7637500000000004  3.8962500000000002 15.9062499999999964   T   T   T
  2.2582500000000003  1.2987500000000001 15.9062499999999964   T   T   T
  5.2692500000000004  1.2987500000000001 18.2687499999999972   T   T   T
  0.7527500000000007  3.8962500000000002 18.2687499999999972   T   T   T
  5.2692500000000022  8.2236849999999997 12.3624999999999972   F   F   F
  0.7527500000000010  5.6261850000000004 12.3625000000000007   F   F   F
  3.7637500000000013  7.3613150000000012 10.0000000000000000   F   F   F
  3.7637500000000008  5.6261850000000022 12.3625000000000007   F   F   F
  5.2692500000000022  9.9588150000000013 10.0000000000000000   F   F   F
  2.2582500000000016  8.2236849999999997 12.3625000000000007   F   F   F
  2.2582500000000021  9.9588150000000013 10.0000000000000000   F   F   F
  0.7527500000000013  7.3613150000000012 10.0000000000000000   F   F   F
  3.7637500000000013  9.0912500000000005 11.1812499999999986   F   F   F
  2.2582500000000012  6.4937500000000004 11.1812499999999986   F   F   F
  5.2692500000000013  6.4937500000000004 13.5437499999999993   F   F   F
  0.7527500000000016  9.0912500000000005 13.5437499999999993   F   F   F
  5.2692500000000022  8.2236849999999997 17.0875000000000021   T   T   T
  0.7527500000000010  5.6261850000000004 17.0875000000000021   T   T   T
  3.7637500000000013  7.3613150000000012 14.7249999999999979   T   T   T
  3.7637500000000008  5.6261850000000022 17.0875000000000021   T   T   T
  5.2692500000000022  9.9588150000000013 14.7249999999999979   T   T   T
  2.2582500000000016  8.2236849999999997 17.0875000000000021   T   T   T
  2.2582500000000021  9.9588150000000013 14.7249999999999979   T   T   T
  0.7527500000000013  7.3613150000000012 14.7249999999999979   T   T   T
  3.7637500000000013  9.0912500000000005 15.9062499999999964   T   T   T
  2.2582500000000012  6.4937500000000004 15.9062499999999964   T   T   T
  5.2692500000000013  6.4937500000000004 18.2687499999999972   T   T   T
  0.7527500000000016  9.0912500000000005 18.2687499999999972   T   T   T
 11.2912500000000016  3.0286849999999998 12.3624999999999972   F   F   F
  6.7747500000000000  0.4311849999999998 12.3624999999999972   F   F   F
  9.7857500000000002  2.1663150000000004  9.9999999999999964   F   F   F
  9.7857500000000002  0.4311850000000015 12.3624999999999972   F   F   F
 11.2912500000000016  4.7638150000000001  9.9999999999999964   F   F   F
  8.2802500000000006  3.0286849999999998 12.3624999999999972   F   F   F
  8.2802500000000023  4.7638150000000001  9.9999999999999964   F   F   F
  6.7747500000000009  2.1663150000000004 10.0000000000000000   F   F   F
  9.7857500000000002  3.8962500000000002 11.1812499999999950   F   F   F
  8.2802500000000006  1.2987500000000001 11.1812499999999986   F   F   F
 11.2912500000000016  1.2987500000000001 13.5437499999999993   F   F   F
  6.7747500000000009  3.8962500000000002 13.5437499999999993   F   F   F
 11.2912500000000016  3.0286849999999998 17.0875000000000021   T   T   T
  6.7747500000000000  0.4311849999999998 17.0875000000000021   T   T   T
  9.7857500000000002  2.1663150000000004 14.7249999999999979   T   T   T
  9.7857500000000002  0.4311850000000015 17.0875000000000021   T   T   T
 11.2912500000000016  4.7638150000000001 14.7249999999999979   T   T   T
  8.2802500000000006  3.0286849999999998 17.0875000000000021   T   T   T
  8.2802500000000023  4.7638150000000001 14.7249999999999979   T   T   T
  6.7747500000000009  2.1663150000000004 14.7249999999999979   T   T   T
  9.7857500000000002  3.8962500000000002 15.9062499999999964   T   T   T
  8.2802500000000006  1.2987500000000001 15.9062499999999964   T   T   T
 11.2912500000000016  1.2987500000000001 18.2687499999999972   T   T   T
  6.7747500000000009  3.8962500000000002 18.2687499999999972   T   T   T
 11.2912500000000016  8.2236849999999997 12.3624999999999972   F   F   F
  6.7747500000000009  5.6261850000000004 12.3624999999999972   F   F   F
  9.7857500000000019  7.3613150000000012  9.9999999999999964   F   F   F
  9.7857500000000002  5.6261850000000022 12.3624999999999972   F   F   F
 11.2912500000000016  9.9588150000000013  9.9999999999999964   F   F   F
  8.2802500000000023  8.2236849999999997 12.3624999999999972   F   F   F
  8.2802500000000023  9.9588150000000013  9.9999999999999964   F   F   F
  6.7747500000000018  7.3613150000000012 10.0000000000000000   F   F   F
  9.7857500000000019  9.0912500000000005 11.1812499999999950   F   F   F
  8.2802500000000023  6.4937500000000004 11.1812499999999986   F   F   F
 11.2912500000000016  6.4937500000000004 13.5437499999999957   F   F   F
  6.7747500000000018  9.0912500000000005 13.5437499999999957   F   F   F
 11.2912500000000016  8.2236849999999997 17.0874999999999986   T   T   T
  6.7747500000000009  5.6261850000000004 17.0874999999999986   T   T   T
  9.7857500000000019  7.3613150000000012 14.7249999999999943   T   T   T
  9.7857500000000002  5.6261850000000022 17.0874999999999986   T   T   T
 11.2912500000000016  9.9588150000000013 14.7249999999999943   T   T   T
  8.2802500000000023  8.2236849999999997 17.0874999999999986   T   T   T
  8.2802500000000023  9.9588150000000013 14.7249999999999943   T   T   T
  6.7747500000000018  7.3613150000000012 14.7249999999999943   T   T   T
  9.7857500000000019  9.0912500000000005 15.9062499999999929   T   T   T
  8.2802500000000023  6.4937500000000004 15.9062499999999929   T   T   T
 11.2912500000000016  6.4937500000000004 18.2687499999999936   T   T   T
  6.7747500000000018  9.0912500000000005 18.2687499999999936   T   T   T
