Mo C  Mo C  Mo C  Mo C  Mo C  Mo C  Mo C  Mo C  Mo C  Mo C  Mo C  Mo C  Mo C  Mo C  Mo C  Mo C  Mo C  Mo C  Mo C  Mo C  Mo C  Mo C  Mo C  Mo C 
 1.0000000000000000
    67.1687500000000028    0.0000000000000000    0.0000000000000041
     0.0000000000000019   12.0440000000000005    0.0000000000000007
     0.0000000000000000    0.0000000000000000   29.5276300000000020
 Mo  C   Mo  C   Mo  C   Mo  C   Mo  C   Mo  C   Mo  C   Mo  C   Mo  C   Mo  C   Mo  C   Mo  C   Mo  C   Mo  C   Mo  C   Mo  C   Mo  C   Mo  C   Mo  C   Mo  C   Mo  C   Mo  C   Mo  C   Mo  C  
   8   2   8   2   8   2   8   2   8   4   8   4   8   4   8   4   8   4   8   4   8   4   8   4   8   4   8   4   8   4   8   4   8   4   8   4   8   4   8   4   8   2   8   2   8   2   8   2
Selective dynamics
Cartesian
 23.5437499999999993  0.7527500000000000 11.7351300000000034   F   F   F
 23.5437499999999993  5.2692500000000004 14.3326300000000035   F   F   F
 21.1812499999999986  2.2582500000000003 12.5975000000000055   F   F   F
 23.5437499999999993  2.2582500000000003 14.3326300000000035   F   F   F
 21.1812499999999986  0.7527500000000000 10.0000000000000053   F   F   F
 23.5437499999999993  3.7637499999999999 11.7351300000000034   F   F   F
 21.1812500000000021  3.7637499999999999 10.0000000000000053   F   F   F
 21.1812500000000021  5.2692500000000004 12.5975000000000055   F   F   F
 22.3625000000000007  2.2582500000000003 10.8675650000000044   F   F   F
 22.3625000000000007  3.7637499999999999 13.4650650000000045   F   F   F
 23.5437499999999993  0.7527500000000000 16.9301300000000055   T   T   T
 23.5437499999999993  5.2692500000000004 19.5276300000000020   T   T   T
 21.1812499999999986  2.2582500000000003 17.7925000000000040   T   T   T
 23.5437499999999993  2.2582500000000003 19.5276300000000020   T   T   T
 21.1812499999999986  0.7527500000000000 15.1950000000000021   T   T   T
 23.5437499999999993  3.7637499999999999 16.9301300000000055   T   T   T
 21.1812500000000021  3.7637499999999999 15.1950000000000021   T   T   T
 21.1812500000000021  5.2692500000000004 17.7925000000000040   T   T   T
 22.3625000000000007  2.2582500000000003 16.0625650000000064   T   T   T
 22.3625000000000007  3.7637499999999999 18.6600650000000030   T   T   T
 23.5437499999999993  6.7747500000000000 11.7351300000000034   F   F   F
 23.5437500000000028 11.2912500000000016 14.3326300000000035   F   F   F
 21.1812500000000021  8.2802500000000006 12.5975000000000055   F   F   F
 23.5437500000000028  8.2802500000000006 14.3326300000000035   F   F   F
 21.1812500000000021  6.7747500000000000 10.0000000000000053   F   F   F
 23.5437500000000028  9.7857500000000002 11.7351300000000069   F   F   F
 21.1812500000000021  9.7857500000000002 10.0000000000000053   F   F   F
 21.1812500000000021 11.2912500000000016 12.5975000000000055   F   F   F
 22.3625000000000007  8.2802500000000006 10.8675650000000044   F   F   F
 22.3625000000000007  9.7857500000000002 13.4650650000000045   F   F   F
 23.5437499999999993  6.7747500000000000 16.9301300000000055   T   T   T
 23.5437500000000028 11.2912500000000016 19.5276300000000020   T   T   T
 21.1812500000000021  8.2802500000000006 17.7925000000000040   T   T   T
 23.5437500000000028  8.2802500000000006 19.5276300000000020   T   T   T
 21.1812500000000021  6.7747500000000000 15.1950000000000021   T   T   T
 23.5437500000000028  9.7857500000000002 16.9301300000000055   T   T   T
 21.1812500000000021  9.7857500000000002 15.1950000000000021   T   T   T
 21.1812500000000021 11.2912500000000016 17.7925000000000040   T   T   T
 22.3625000000000007  8.2802500000000006 16.0625650000000064   T   T   T
 22.3625000000000007  9.7857500000000002 18.6600650000000030   T   T   T
 28.2687499999999972  0.7527500000000000 11.7351300000000034   F   F   F
 28.2687500000000007  5.2692500000000004 14.3326300000000035   F   F   F
 25.9062500000000000  2.2582500000000003 12.5975000000000055   F   F   F
 28.2687500000000007  2.2582500000000003 14.3326300000000035   F   F   F
 25.9062500000000000  0.7527500000000000 10.0000000000000053   F   F   F
 28.2687500000000007  3.7637499999999999 11.7351300000000069   F   F   F
 25.9062500000000000  3.7637499999999999 10.0000000000000053   F   F   F
 25.9062500000000000  5.2692500000000004 12.5975000000000055   F   F   F
 27.0874999999999986  2.2582500000000003 10.8675650000000044   F   F   F
 27.0874999999999986  3.7637499999999999 13.4650650000000045   F   F   F
 24.7250000000000014  0.7527500000000000 13.4650650000000045   F   F   F
 24.7250000000000014  5.2692500000000004 10.8675650000000044   F   F   F
 28.2687499999999972  0.7527500000000000 16.9301300000000055   T   T   T
 28.2687500000000007  5.2692500000000004 19.5276300000000020   T   T   T
 25.9062500000000000  2.2582500000000003 17.7925000000000040   T   T   T
 28.2687500000000007  2.2582500000000003 19.5276300000000020   T   T   T
 25.9062500000000000  0.7527500000000000 15.1950000000000021   T   T   T
 28.2687500000000007  3.7637499999999999 16.9301300000000055   T   T   T
 25.9062500000000000  3.7637499999999999 15.1950000000000021   T   T   T
 25.9062500000000000  5.2692500000000004 17.7925000000000040   T   T   T
 27.0874999999999986  2.2582500000000003 16.0625650000000064   T   T   T
 27.0874999999999986  3.7637499999999999 18.6600650000000030   T   T   T
 24.7250000000000014  0.7527500000000000 18.6600650000000030   T   T   T
 24.7250000000000014  5.2692500000000004 16.0625650000000064   T   T   T
 28.2687500000000007  6.7747500000000000 11.7351300000000034   F   F   F
 28.2687500000000007 11.2912500000000016 14.3326300000000035   F   F   F
 25.9062500000000000  8.2802500000000006 12.5975000000000055   F   F   F
 28.2687500000000007  8.2802500000000006 14.3326300000000035   F   F   F
 25.9062500000000000  6.7747500000000000 10.0000000000000053   F   F   F
 28.2687500000000007  9.7857500000000002 11.7351300000000069   F   F   F
 25.9062500000000000  9.7857500000000002 10.0000000000000053   F   F   F
 25.9062500000000000 11.2912500000000016 12.5975000000000055   F   F   F
 27.0874999999999986  8.2802500000000006 10.8675650000000044   F   F   F
 27.0874999999999986  9.7857500000000002 13.4650650000000045   F   F   F
 24.7250000000000014  6.7747500000000000 13.4650650000000045   F   F   F
 24.7250000000000014 11.2912500000000016 10.8675650000000044   F   F   F
 28.2687500000000007  6.7747500000000000 16.9301300000000055   T   T   T
 28.2687500000000007 11.2912500000000016 19.5276300000000020   T   T   T
 25.9062500000000000  8.2802500000000006 17.7925000000000040   T   T   T
 28.2687500000000007  8.2802500000000006 19.5276300000000020   T   T   T
 25.9062500000000000  6.7747500000000000 15.1950000000000056   T   T   T
 28.2687500000000007  9.7857500000000002 16.9301300000000055   T   T   T
 25.9062500000000000  9.7857500000000002 15.1950000000000056   T   T   T
 25.9062500000000000 11.2912500000000016 17.7925000000000040   T   T   T
 27.0874999999999986  8.2802500000000006 16.0625650000000064   T   T   T
 27.0874999999999986  9.7857500000000002 18.6600650000000030   T   T   T
 24.7250000000000014  6.7747500000000000 18.6600650000000030   T   T   T
 24.7250000000000014 11.2912500000000016 16.0625650000000064   T   T   T
 32.9937499999999986  0.7527500000000000 11.7351300000000034   F   F   F
 32.9937499999999986  5.2692500000000004 14.3326300000000035   F   F   F
 30.6312500000000014  2.2582500000000003 12.5975000000000055   F   F   F
 32.9937499999999986  2.2582500000000003 14.3326300000000035   F   F   F
 30.6312500000000014  0.7527500000000000 10.0000000000000053   F   F   F
 32.9937499999999986  3.7637499999999999 11.7351300000000069   F   F   F
 30.6312500000000014  3.7637499999999999 10.0000000000000053   F   F   F
 30.6312500000000014  5.2692500000000004 12.5975000000000055   F   F   F
 31.8125000000000000  2.2582500000000003 10.8675650000000044   F   F   F
 31.8125000000000000  3.7637499999999999 13.4650650000000045   F   F   F
 29.4499999999999993  0.7527500000000000 13.4650650000000045   F   F   F
 29.4499999999999993  5.2692500000000004 10.8675650000000044   F   F   F
 32.9937499999999986  0.7527500000000000 16.9301300000000055   T   T   T
 32.9937499999999986  5.2692500000000004 19.5276300000000020   T   T   T
 30.6312500000000014  2.2582500000000003 17.7925000000000040   T   T   T
 32.9937499999999986  2.2582500000000003 19.5276300000000020   T   T   T
 30.6312500000000014  0.7527500000000000 15.1950000000000056   T   T   T
 32.9937499999999986  3.7637499999999999 16.9301300000000055   T   T   T
 30.6312500000000014  3.7637499999999999 15.1950000000000056   T   T   T
 30.6312500000000014  5.2692500000000004 17.7925000000000040   T   T   T
 31.8125000000000000  2.2582500000000003 16.0625650000000064   T   T   T
 31.8125000000000000  3.7637499999999999 18.6600650000000030   T   T   T
 29.4499999999999993  0.7527500000000000 18.6600650000000030   T   T   T
 29.4499999999999993  5.2692500000000004 16.0625650000000064   T   T   T
 32.9937499999999986  6.7747500000000000 11.7351300000000069   F   F   F
 32.9937500000000057 11.2912500000000016 14.3326300000000035   F   F   F
 30.6312500000000014  8.2802500000000006 12.5975000000000055   F   F   F
 32.9937500000000057  8.2802500000000006 14.3326300000000035   F   F   F
 30.6312500000000014  6.7747500000000000 10.0000000000000053   F   F   F
 32.9937500000000057  9.7857500000000002 11.7351300000000069   F   F   F
 30.6312500000000014  9.7857500000000002 10.0000000000000053   F   F   F
 30.6312500000000014 11.2912500000000016 12.5975000000000055   F   F   F
 31.8125000000000000  8.2802500000000006 10.8675650000000044   F   F   F
 31.8125000000000000  9.7857500000000002 13.4650650000000045   F   F   F
 29.4500000000000028  6.7747500000000000 13.4650650000000045   F   F   F
 29.4500000000000028 11.2912500000000016 10.8675650000000044   F   F   F
 32.9937499999999986  6.7747500000000000 16.9301300000000055   T   T   T
 32.9937500000000057 11.2912500000000016 19.5276300000000020   T   T   T
 30.6312500000000014  8.2802500000000006 17.7925000000000040   T   T   T
 32.9937500000000057  8.2802500000000006 19.5276300000000020   T   T   T
 30.6312500000000014  6.7747500000000000 15.1950000000000056   T   T   T
 32.9937500000000057  9.7857500000000002 16.9301300000000055   T   T   T
 30.6312500000000014  9.7857500000000002 15.1950000000000056   T   T   T
 30.6312500000000014 11.2912500000000016 17.7925000000000040   T   T   T
 31.8125000000000000  8.2802500000000006 16.0625650000000064   T   T   T
 31.8125000000000000  9.7857500000000002 18.6600650000000030   T   T   T
 29.4500000000000028  6.7747500000000000 18.6600650000000030   T   T   T
 29.4500000000000028 11.2912500000000016 16.0625650000000064   T   T   T
 37.7187500000000000  0.7527500000000000 11.7351300000000069   F   F   F
 37.7187500000000000  5.2692500000000004 14.3326300000000035   F   F   F
 35.3562500000000028  2.2582500000000003 12.5975000000000055   F   F   F
 37.7187500000000000  2.2582500000000003 14.3326300000000035   F   F   F
 35.3562500000000028  0.7527500000000000 10.0000000000000053   F   F   F
 37.7187500000000000  3.7637499999999999 11.7351300000000069   F   F   F
 35.3562500000000028  3.7637499999999999 10.0000000000000053   F   F   F
 35.3562500000000028  5.2692500000000004 12.5975000000000055   F   F   F
 36.5374999999999943  2.2582500000000003 10.8675650000000044   F   F   F
 36.5374999999999943  3.7637499999999999 13.4650650000000045   F   F   F
 34.1749999999999972  0.7527500000000000 13.4650650000000045   F   F   F
 34.1749999999999972  5.2692500000000004 10.8675650000000044   F   F   F
 37.7187500000000000  0.7527500000000000 16.9301300000000055   T   T   T
 37.7187500000000000  5.2692500000000004 19.5276300000000020   T   T   T
 35.3562500000000028  2.2582500000000003 17.7925000000000040   T   T   T
 37.7187500000000000  2.2582500000000003 19.5276300000000020   T   T   T
 35.3562500000000028  0.7527500000000000 15.1950000000000056   T   T   T
 37.7187500000000000  3.7637499999999999 16.9301300000000055   T   T   T
 35.3562500000000028  3.7637499999999999 15.1950000000000056   T   T   T
 35.3562500000000028  5.2692500000000004 17.7925000000000040   T   T   T
 36.5374999999999943  2.2582500000000003 16.0625650000000064   T   T   T
 36.5374999999999943  3.7637499999999999 18.6600650000000030   T   T   T
 34.1749999999999972  0.7527500000000000 18.6600650000000030   T   T   T
 34.1749999999999972  5.2692500000000004 16.0625650000000064   T   T   T
 37.7187500000000000  6.7747500000000000 11.7351300000000069   F   F   F
 37.7187500000000000 11.2912500000000016 14.3326300000000035   F   F   F
 35.3562500000000028  8.2802500000000006 12.5975000000000055   F   F   F
 37.7187500000000000  8.2802500000000006 14.3326300000000035   F   F   F
 35.3562500000000028  6.7747500000000000 10.0000000000000053   F   F   F
 37.7187500000000000  9.7857500000000002 11.7351300000000069   F   F   F
 35.3562500000000028  9.7857500000000002 10.0000000000000053   F   F   F
 35.3562500000000028 11.2912500000000016 12.5975000000000055   F   F   F
 36.5375000000000014  8.2802500000000006 10.8675650000000044   F   F   F
 36.5375000000000014  9.7857500000000002 13.4650650000000045   F   F   F
 34.1749999999999972  6.7747500000000000 13.4650650000000045   F   F   F
 34.1749999999999972 11.2912500000000016 10.8675650000000044   F   F   F
 37.7187500000000000  6.7747500000000000 16.9301300000000055   T   T   T
 37.7187500000000000 11.2912500000000016 19.5276300000000020   T   T   T
 35.3562500000000028  8.2802500000000006 17.7925000000000040   T   T   T
 37.7187500000000000  8.2802500000000006 19.5276300000000020   T   T   T
 35.3562500000000028  6.7747500000000000 15.1950000000000056   T   T   T
 37.7187500000000000  9.7857500000000002 16.9301300000000055   T   T   T
 35.3562500000000028  9.7857500000000002 15.1950000000000056   T   T   T
 35.3562500000000028 11.2912500000000016 17.7925000000000040   T   T   T
 36.5375000000000014  8.2802500000000006 16.0625650000000064   T   T   T
 36.5375000000000014  9.7857500000000002 18.6600650000000030   T   T   T
 34.1749999999999972  6.7747500000000000 18.6600650000000030   T   T   T
 34.1749999999999972 11.2912500000000016 16.0625650000000064   T   T   T
 42.4437499999999943  0.7527500000000000 11.7351300000000069   F   F   F
 42.4437499999999943  5.2692500000000004 14.3326300000000035   F   F   F
 40.0812499999999972  2.2582500000000003 12.5975000000000055   F   F   F
 42.4437499999999943  2.2582500000000003 14.3326300000000035   F   F   F
 40.0812499999999972  0.7527500000000000 10.0000000000000053   F   F   F
 42.4437499999999943  3.7637499999999999 11.7351300000000069   F   F   F
 40.0812499999999972  3.7637499999999999 10.0000000000000053   F   F   F
 40.0812499999999972  5.2692500000000004 12.5975000000000055   F   F   F
 41.2625000000000028  2.2582500000000003 10.8675650000000044   F   F   F
 41.2625000000000028  3.7637499999999999 13.4650650000000045   F   F   F
 38.8999999999999986  0.7527500000000000 13.4650650000000045   F   F   F
 38.8999999999999986  5.2692500000000004 10.8675650000000044   F   F   F
 42.4437499999999943  0.7527500000000000 16.9301300000000055   T   T   T
 42.4437499999999943  5.2692500000000004 19.5276300000000020   T   T   T
 40.0812499999999972  2.2582500000000003 17.7925000000000040   T   T   T
 42.4437499999999943  2.2582500000000003 19.5276300000000020   T   T   T
 40.0812499999999972  0.7527500000000000 15.1950000000000056   T   T   T
 42.4437499999999943  3.7637499999999999 16.9301300000000055   T   T   T
 40.0812499999999972  3.7637499999999999 15.1950000000000056   T   T   T
 40.0812499999999972  5.2692500000000004 17.7925000000000040   T   T   T
 41.2625000000000028  2.2582500000000003 16.0625650000000064   T   T   T
 41.2625000000000028  3.7637499999999999 18.6600650000000030   T   T   T
 38.8999999999999986  0.7527500000000000 18.6600650000000030   T   T   T
 38.8999999999999986  5.2692500000000004 16.0625650000000064   T   T   T
 42.4437499999999943  6.7747500000000000 11.7351300000000069   F   F   F
 42.4437499999999943 11.2912500000000016 14.3326300000000071   F   F   F
 40.0812499999999972  8.2802500000000006 12.5975000000000055   F   F   F
 42.4437499999999943  8.2802500000000006 14.3326300000000035   F   F   F
 40.0812499999999972  6.7747500000000000 10.0000000000000053   F   F   F
 42.4437499999999943  9.7857500000000002 11.7351300000000069   F   F   F
 40.0812499999999972  9.7857500000000002 10.0000000000000053   F   F   F
 40.0812499999999972 11.2912500000000016 12.5975000000000055   F   F   F
 41.2625000000000028  8.2802500000000006 10.8675650000000044   F   F   F
 41.2625000000000028  9.7857500000000002 13.4650650000000045   F   F   F
 38.8999999999999986  6.7747500000000000 13.4650650000000045   F   F   F
 38.8999999999999986 11.2912500000000016 10.8675650000000044   F   F   F
 42.4437499999999943  6.7747500000000000 16.9301300000000055   T   T   T
 42.4437499999999943 11.2912500000000016 19.5276300000000091   T   T   T
 40.0812499999999972  8.2802500000000006 17.7925000000000040   T   T   T
 42.4437499999999943  8.2802500000000006 19.5276300000000020   T   T   T
 40.0812499999999972  6.7747500000000000 15.1950000000000056   T   T   T
 42.4437499999999943  9.7857500000000002 16.9301300000000055   T   T   T
 40.0812499999999972  9.7857500000000002 15.1950000000000056   T   T   T
 40.0812499999999972 11.2912500000000016 17.7925000000000040   T   T   T
 41.2625000000000028  8.2802500000000006 16.0625650000000064   T   T   T
 41.2625000000000028  9.7857500000000002 18.6600650000000030   T   T   T
 38.8999999999999986  6.7747500000000000 18.6600650000000030   T   T   T
 38.8999999999999986 11.2912500000000016 16.0625650000000064   T   T   T
 47.1687500000000028  0.7527500000000000 11.7351300000000069   F   F   F
 47.1687500000000028  5.2692500000000004 14.3326300000000071   F   F   F
 44.8062499999999986  2.2582500000000003 12.5975000000000055   F   F   F
 47.1687500000000028  2.2582500000000003 14.3326300000000035   F   F   F
 44.8062499999999986  0.7527500000000000 10.0000000000000053   F   F   F
 47.1687500000000028  3.7637499999999999 11.7351300000000069   F   F   F
 44.8062500000000057  3.7637499999999999 10.0000000000000053   F   F   F
 44.8062500000000057  5.2692500000000004 12.5975000000000055   F   F   F
 43.6250000000000000  0.7527500000000000 13.4650650000000045   F   F   F
 43.6250000000000000  5.2692500000000004 10.8675650000000044   F   F   F
 47.1687500000000028  0.7527500000000000 16.9301300000000055   T   T   T
 47.1687500000000028  5.2692500000000004 19.5276300000000091   T   T   T
 44.8062499999999986  2.2582500000000003 17.7925000000000040   T   T   T
 47.1687500000000028  2.2582500000000003 19.5276300000000020   T   T   T
 44.8062499999999986  0.7527500000000000 15.1950000000000056   T   T   T
 47.1687500000000028  3.7637499999999999 16.9301300000000055   T   T   T
 44.8062500000000057  3.7637499999999999 15.1950000000000056   T   T   T
 44.8062500000000057  5.2692500000000004 17.7925000000000040   T   T   T
 43.6250000000000000  0.7527500000000000 18.6600650000000030   T   T   T
 43.6250000000000000  5.2692500000000004 16.0625650000000064   T   T   T
 47.1687500000000028  6.7747500000000000 11.7351300000000069   F   F   F
 47.1687500000000028 11.2912500000000016 14.3326300000000071   F   F   F
 44.8062499999999986  8.2802500000000006 12.5975000000000055   F   F   F
 47.1687500000000028  8.2802500000000006 14.3326300000000035   F   F   F
 44.8062499999999986  6.7747500000000000 10.0000000000000053   F   F   F
 47.1687500000000028  9.7857500000000002 11.7351300000000069   F   F   F
 44.8062500000000057  9.7857500000000002 10.0000000000000053   F   F   F
 44.8062500000000057 11.2912500000000016 12.5975000000000055   F   F   F
 43.6250000000000000  6.7747500000000000 13.4650650000000045   F   F   F
 43.6250000000000000 11.2912500000000016 10.8675650000000044   F   F   F
 47.1687500000000028  6.7747500000000000 16.9301300000000055   T   T   T
 47.1687500000000028 11.2912500000000016 19.5276300000000091   T   T   T
 44.8062499999999986  8.2802500000000006 17.7925000000000040   T   T   T
 47.1687500000000028  8.2802500000000006 19.5276300000000020   T   T   T
 44.8062499999999986  6.7747500000000000 15.1950000000000056   T   T   T
 47.1687500000000028  9.7857500000000002 16.9301300000000055   T   T   T
 44.8062500000000057  9.7857500000000002 15.1950000000000056   T   T   T
 44.8062500000000057 11.2912500000000016 17.7925000000000040   T   T   T
 43.6250000000000000  6.7747500000000000 18.6600650000000030   T   T   T
 43.6250000000000000 11.2912500000000016 16.0625650000000064   T   T   T
