Mo C  Mo C  Mo C  Mo C  Mo C  Mo C  Mo C  Mo C  Mo C  Mo C  Mo C  Mo C  Mo C  Mo C  Mo C  Mo C  Mo C  Mo C  Mo C  Mo C  Mo C  Mo C  Mo C  Mo C  Mo C  Mo C  Mo C  Mo C  Mo C  Mo C  Mo C  Mo C  Mo C  Mo C  Mo C  Mo C  Mo C  Mo C  Mo C  Mo C  Mo C  Mo C  Mo C  Mo C  Mo C  Mo C  Mo C  Mo C  Mo C  Mo C  Mo C  Mo C  Mo C  Mo C  Mo C  Mo C  Mo C  Mo C  Mo C  Mo C 
 1.0000000000000000
    62.0687500000000014    0.0000000000000000    0.0000000000000038
     0.0000000000000029   18.0660000000000025    0.0000000000000011
     0.0000000000000000    0.0000000000000000   25.5276300000000056
 Mo  C   Mo  C   Mo  C   Mo  C   Mo  C   Mo  C   Mo  C   Mo  C   Mo  C   Mo  C   Mo  C   Mo  C   Mo  C   Mo  C   Mo  C   Mo  C   Mo  C   Mo  C   Mo  C   Mo  C   Mo  C   Mo  C   Mo  C   Mo  C   Mo  C   Mo  C   Mo  C   Mo  C   Mo  C   Mo  C   Mo  C   Mo  C   Mo  C   Mo  C   Mo  C   Mo  C   Mo  C   Mo  C   Mo  C   Mo  C   Mo  C   Mo  C   Mo  C   Mo  C   Mo  C   Mo  C   Mo  C   Mo  C   Mo  C   Mo  C   Mo  C   Mo  C   Mo  C   Mo  C   Mo  C   Mo  C   Mo  C   Mo  C   Mo  C   Mo  C  
   4   4   4   4   4   4   4   4   4   4   4   4   8   4   8   4   8   4   8   4   8   4   8   4   8   4   8   4   8   4   8   4   8   4   8   4   8   4   8   4   8   4   8   4   8   4   8   4   8   4   8   4   8   4   8   4   8   4   8   4   8   4   8   4   8   4   8   4   8   4   8   4   8   4   8   4   8   4   8   4   8   4   8   4   8   4   8   4   8   4   8   4   8   4   8   4   8   4   8   4   8   4   8   4   8   4   8   4   4   4   4   4   4   4   4   4   4   4   4   4
Selective dynamics
Cartesian
 11.5437499999999993  0.7527500000000000  9.7351300000000016   F   F   F
 11.5437500000000011  5.2692500000000004 12.3326300000000018   F   F   F
 11.5437499999999993  2.2582500000000003 12.3326300000000018   F   F   F
 11.5437499999999993  3.7637499999999999  9.7351300000000016   F   F   F
 10.3625000000000007  2.2582500000000003  8.8675650000000008   F   F   F
 10.3625000000000007  3.7637499999999999 11.4650650000000027   F   F   F
  8.0000000000000000  0.7527500000000000 11.4650650000000009   F   F   F
  8.0000000000000000  5.2692500000000004  8.8675650000000008   F   F   F
 11.5437499999999993  0.7527500000000000 14.9301300000000019   T   T   T
 11.5437500000000011  5.2692500000000004 17.5276300000000020   T   T   T
 11.5437499999999993  2.2582500000000003 17.5276300000000020   T   T   T
 11.5437499999999993  3.7637499999999999 14.9301300000000019   T   T   T
 10.3625000000000007  2.2582500000000003 14.0625650000000029   T   T   T
 10.3625000000000007  3.7637499999999999 16.6600650000000030   T   T   T
  8.0000000000000000  0.7527500000000000 16.6600650000000030   T   T   T
  8.0000000000000000  5.2692500000000004 14.0625650000000029   T   T   T
 11.5437500000000011  6.7747500000000000  9.7351300000000016   F   F   F
 11.5437500000000011 11.2912500000000016 12.3326300000000018   F   F   F
 11.5437500000000011  8.2802500000000006 12.3326300000000018   F   F   F
 11.5437500000000011  9.7857500000000002  9.7351300000000016   F   F   F
 10.3625000000000007  8.2802500000000006  8.8675650000000026   F   F   F
 10.3625000000000007  9.7857500000000002 11.4650650000000027   F   F   F
  8.0000000000000018  6.7747500000000000 11.4650650000000027   F   F   F
  8.0000000000000018 11.2912500000000016  8.8675650000000026   F   F   F
 11.5437500000000011  6.7747500000000000 14.9301300000000019   T   T   T
 11.5437500000000011 11.2912500000000016 17.5276300000000020   T   T   T
 11.5437500000000011  8.2802500000000006 17.5276300000000020   T   T   T
 11.5437500000000011  9.7857500000000002 14.9301300000000019   T   T   T
 10.3625000000000007  8.2802500000000006 14.0625650000000029   T   T   T
 10.3625000000000007  9.7857500000000002 16.6600650000000030   T   T   T
  8.0000000000000018  6.7747500000000000 16.6600650000000030   T   T   T
  8.0000000000000018 11.2912500000000016 14.0625650000000029   T   T   T
 11.5437500000000011 12.7967500000000012  9.7351300000000016   F   F   F
 11.5437500000000028 17.3132500000000000 12.3326300000000035   F   F   F
 11.5437500000000028 14.3022500000000008 12.3326300000000018   F   F   F
 11.5437500000000028 15.8077500000000004  9.7351300000000034   F   F   F
 10.3625000000000025 14.3022500000000008  8.8675650000000026   F   F   F
 10.3625000000000025 15.8077500000000004 11.4650650000000027   F   F   F
  8.0000000000000018 12.7967500000000012 11.4650650000000027   F   F   F
  8.0000000000000036 17.3132500000000000  8.8675650000000026   F   F   F
 11.5437500000000011 12.7967500000000012 14.9301300000000019   T   T   T
 11.5437500000000028 17.3132500000000000 17.5276300000000020   T   T   T
 11.5437500000000028 14.3022500000000008 17.5276300000000020   T   T   T
 11.5437500000000028 15.8077500000000004 14.9301300000000037   T   T   T
 10.3625000000000025 14.3022500000000008 14.0625650000000029   T   T   T
 10.3625000000000025 15.8077500000000004 16.6600650000000030   T   T   T
  8.0000000000000018 12.7967500000000012 16.6600650000000030   T   T   T
  8.0000000000000036 17.3132500000000000 14.0625650000000029   T   T   T
 16.2687499999999972  0.7527500000000000  9.7351300000000016   F   F   F
 16.2687500000000007  5.2692500000000004 12.3326300000000018   F   F   F
 13.9062500000000000  2.2582500000000003 10.5975000000000019   F   F   F
 16.2687500000000007  2.2582500000000003 12.3326300000000018   F   F   F
 13.9062500000000000  0.7527500000000000  8.0000000000000018   F   F   F
 16.2687500000000007  3.7637499999999999  9.7351300000000016   F   F   F
 13.9062500000000000  3.7637499999999999  8.0000000000000018   F   F   F
 13.9062500000000000  5.2692500000000004 10.5975000000000019   F   F   F
 15.0875000000000004  2.2582500000000003  8.8675650000000026   F   F   F
 15.0875000000000004  3.7637499999999999 11.4650650000000027   F   F   F
 12.7249999999999996  0.7527500000000000 11.4650650000000027   F   F   F
 12.7250000000000014  5.2692500000000004  8.8675650000000026   F   F   F
 16.2687499999999972  0.7527500000000000 14.9301300000000019   T   T   T
 16.2687500000000007  5.2692500000000004 17.5276300000000020   T   T   T
 13.9062500000000000  2.2582500000000003 15.7925000000000004   T   T   T
 16.2687500000000007  2.2582500000000003 17.5276300000000020   T   T   T
 13.9062500000000000  0.7527500000000000 13.1950000000000021   T   T   T
 16.2687500000000007  3.7637499999999999 14.9301300000000019   T   T   T
 13.9062500000000000  3.7637499999999999 13.1950000000000021   T   T   T
 13.9062500000000000  5.2692500000000004 15.7925000000000004   T   T   T
 15.0875000000000004  2.2582500000000003 14.0625650000000029   T   T   T
 15.0875000000000004  3.7637499999999999 16.6600650000000030   T   T   T
 12.7249999999999996  0.7527500000000000 16.6600650000000030   T   T   T
 12.7250000000000014  5.2692500000000004 14.0625650000000029   T   T   T
 16.2687500000000007  6.7747500000000000  9.7351300000000016   F   F   F
 16.2687500000000007 11.2912500000000016 12.3326300000000035   F   F   F
 13.9062500000000000  8.2802500000000006 10.5975000000000019   F   F   F
 16.2687500000000007  8.2802500000000006 12.3326300000000018   F   F   F
 13.9062500000000000  6.7747500000000000  8.0000000000000018   F   F   F
 16.2687500000000007  9.7857500000000002  9.7351300000000016   F   F   F
 13.9062500000000000  9.7857500000000002  8.0000000000000018   F   F   F
 13.9062500000000018 11.2912500000000016 10.5975000000000019   F   F   F
 15.0875000000000004  8.2802500000000006  8.8675650000000026   F   F   F
 15.0875000000000004  9.7857500000000002 11.4650650000000027   F   F   F
 12.7250000000000014  6.7747500000000000 11.4650650000000027   F   F   F
 12.7250000000000014 11.2912500000000016  8.8675650000000026   F   F   F
 16.2687500000000007  6.7747500000000000 14.9301300000000019   T   T   T
 16.2687500000000007 11.2912500000000016 17.5276300000000020   T   T   T
 13.9062500000000000  8.2802500000000006 15.7925000000000022   T   T   T
 16.2687500000000007  8.2802500000000006 17.5276300000000020   T   T   T
 13.9062500000000000  6.7747500000000000 13.1950000000000038   T   T   T
 16.2687500000000007  9.7857500000000002 14.9301300000000037   T   T   T
 13.9062500000000000  9.7857500000000002 13.1950000000000038   T   T   T
 13.9062500000000018 11.2912500000000016 15.7925000000000022   T   T   T
 15.0875000000000004  8.2802500000000006 14.0625650000000029   T   T   T
 15.0875000000000004  9.7857500000000002 16.6600650000000030   T   T   T
 12.7250000000000014  6.7747500000000000 16.6600650000000030   T   T   T
 12.7250000000000014 11.2912500000000016 14.0625650000000029   T   T   T
 16.2687500000000007 12.7967500000000012  9.7351300000000016   F   F   F
 16.2687500000000043 17.3132500000000000 12.3326300000000035   F   F   F
 13.9062500000000018 14.3022500000000008 10.5975000000000019   F   F   F
 16.2687500000000007 14.3022500000000008 12.3326300000000018   F   F   F
 13.9062500000000018 12.7967500000000012  8.0000000000000018   F   F   F
 16.2687500000000007 15.8077500000000004  9.7351300000000034   F   F   F
 13.9062500000000018 15.8077500000000004  8.0000000000000018   F   F   F
 13.9062500000000018 17.3132500000000000 10.5975000000000019   F   F   F
 15.0875000000000021 14.3022500000000008  8.8675650000000026   F   F   F
 15.0875000000000021 15.8077500000000004 11.4650650000000027   F   F   F
 12.7250000000000014 12.7967500000000012 11.4650650000000027   F   F   F
 12.7250000000000014 17.3132500000000000  8.8675650000000026   F   F   F
 16.2687500000000007 12.7967500000000012 14.9301300000000019   T   T   T
 16.2687500000000043 17.3132500000000000 17.5276300000000020   T   T   T
 13.9062500000000018 14.3022500000000008 15.7925000000000022   T   T   T
 16.2687500000000007 14.3022500000000008 17.5276300000000020   T   T   T
 13.9062500000000018 12.7967500000000012 13.1950000000000038   T   T   T
 16.2687500000000007 15.8077500000000004 14.9301300000000037   T   T   T
 13.9062500000000018 15.8077500000000004 13.1950000000000038   T   T   T
 13.9062500000000018 17.3132500000000000 15.7925000000000022   T   T   T
 15.0875000000000021 14.3022500000000008 14.0625650000000029   T   T   T
 15.0875000000000021 15.8077500000000004 16.6600650000000030   T   T   T
 12.7250000000000014 12.7967500000000012 16.6600650000000030   T   T   T
 12.7250000000000014 17.3132500000000000 14.0625650000000029   T   T   T
 20.9937499999999986  0.7527500000000000  9.7351300000000016   F   F   F
 20.9937499999999986  5.2692500000000004 12.3326300000000035   F   F   F
 18.6312500000000014  2.2582500000000003 10.5975000000000019   F   F   F
 20.9937499999999986  2.2582500000000003 12.3326300000000018   F   F   F
 18.6312500000000014  0.7527500000000000  8.0000000000000018   F   F   F
 20.9937499999999986  3.7637499999999999  9.7351300000000016   F   F   F
 18.6312500000000014  3.7637499999999999  8.0000000000000018   F   F   F
 18.6312500000000014  5.2692500000000004 10.5975000000000019   F   F   F
 19.8125000000000000  2.2582500000000003  8.8675650000000026   F   F   F
 19.8125000000000000  3.7637499999999999 11.4650650000000027   F   F   F
 17.4499999999999993  0.7527500000000000 11.4650650000000027   F   F   F
 17.4499999999999993  5.2692500000000004  8.8675650000000026   F   F   F
 20.9937499999999986  0.7527500000000000 14.9301300000000019   T   T   T
 20.9937499999999986  5.2692500000000004 17.5276300000000020   T   T   T
 18.6312500000000014  2.2582500000000003 15.7925000000000022   T   T   T
 20.9937499999999986  2.2582500000000003 17.5276300000000020   T   T   T
 18.6312500000000014  0.7527500000000000 13.1950000000000038   T   T   T
 20.9937499999999986  3.7637499999999999 14.9301300000000037   T   T   T
 18.6312500000000014  3.7637499999999999 13.1950000000000038   T   T   T
 18.6312500000000014  5.2692500000000004 15.7925000000000022   T   T   T
 19.8125000000000000  2.2582500000000003 14.0625650000000029   T   T   T
 19.8125000000000000  3.7637499999999999 16.6600650000000030   T   T   T
 17.4499999999999993  0.7527500000000000 16.6600650000000030   T   T   T
 17.4499999999999993  5.2692500000000004 14.0625650000000029   T   T   T
 20.9937499999999986  6.7747500000000000  9.7351300000000016   F   F   F
 20.9937500000000021 11.2912500000000016 12.3326300000000035   F   F   F
 18.6312500000000014  8.2802500000000006 10.5975000000000019   F   F   F
 20.9937500000000021  8.2802500000000006 12.3326300000000018   F   F   F
 18.6312500000000014  6.7747500000000000  8.0000000000000018   F   F   F
 20.9937500000000021  9.7857500000000002  9.7351300000000034   F   F   F
 18.6312500000000014  9.7857500000000002  8.0000000000000018   F   F   F
 18.6312500000000014 11.2912500000000016 10.5975000000000019   F   F   F
 19.8125000000000000  8.2802500000000006  8.8675650000000026   F   F   F
 19.8125000000000000  9.7857500000000002 11.4650650000000027   F   F   F
 17.4500000000000028  6.7747500000000000 11.4650650000000027   F   F   F
 17.4500000000000028 11.2912500000000016  8.8675650000000026   F   F   F
 20.9937499999999986  6.7747500000000000 14.9301300000000019   T   T   T
 20.9937500000000021 11.2912500000000016 17.5276300000000020   T   T   T
 18.6312500000000014  8.2802500000000006 15.7925000000000022   T   T   T
 20.9937500000000021  8.2802500000000006 17.5276300000000020   T   T   T
 18.6312500000000014  6.7747500000000000 13.1950000000000038   T   T   T
 20.9937500000000021  9.7857500000000002 14.9301300000000037   T   T   T
 18.6312500000000014  9.7857500000000002 13.1950000000000038   T   T   T
 18.6312500000000014 11.2912500000000016 15.7925000000000022   T   T   T
 19.8125000000000000  8.2802500000000006 14.0625650000000029   T   T   T
 19.8125000000000000  9.7857500000000002 16.6600650000000030   T   T   T
 17.4500000000000028  6.7747500000000000 16.6600650000000030   T   T   T
 17.4500000000000028 11.2912500000000016 14.0625650000000029   T   T   T
 20.9937499999999986 12.7967500000000012  9.7351300000000034   F   F   F
 20.9937500000000021 17.3132500000000000 12.3326300000000035   F   F   F
 18.6312500000000014 14.3022500000000008 10.5975000000000019   F   F   F
 20.9937500000000021 14.3022500000000008 12.3326300000000018   F   F   F
 18.6312500000000014 12.7967500000000012  8.0000000000000036   F   F   F
 20.9937500000000021 15.8077500000000004  9.7351300000000034   F   F   F
 18.6312500000000014 15.8077500000000004  8.0000000000000036   F   F   F
 18.6312500000000014 17.3132500000000000 10.5975000000000037   F   F   F
 19.8125000000000000 14.3022500000000008  8.8675650000000026   F   F   F
 19.8125000000000000 15.8077500000000004 11.4650650000000027   F   F   F
 17.4500000000000028 12.7967500000000012 11.4650650000000027   F   F   F
 17.4500000000000028 17.3132500000000000  8.8675650000000026   F   F   F
 20.9937499999999986 12.7967500000000012 14.9301300000000019   T   T   T
 20.9937500000000021 17.3132500000000000 17.5276300000000020   T   T   T
 18.6312500000000014 14.3022500000000008 15.7925000000000022   T   T   T
 20.9937500000000021 14.3022500000000008 17.5276300000000020   T   T   T
 18.6312500000000014 12.7967500000000012 13.1950000000000038   T   T   T
 20.9937500000000021 15.8077500000000004 14.9301300000000037   T   T   T
 18.6312500000000014 15.8077500000000004 13.1950000000000038   T   T   T
 18.6312500000000014 17.3132500000000000 15.7925000000000022   T   T   T
 19.8125000000000000 14.3022500000000008 14.0625650000000029   T   T   T
 19.8125000000000000 15.8077500000000004 16.6600650000000030   T   T   T
 17.4500000000000028 12.7967500000000012 16.6600650000000030   T   T   T
 17.4500000000000028 17.3132500000000000 14.0625650000000029   T   T   T
 25.7187500000000000  0.7527500000000000  9.7351300000000016   F   F   F
 25.7187500000000000  5.2692500000000004 12.3326300000000035   F   F   F
 23.3562499999999993  2.2582500000000003 10.5975000000000019   F   F   F
 25.7187500000000000  2.2582500000000003 12.3326300000000018   F   F   F
 23.3562499999999993  0.7527500000000000  8.0000000000000018   F   F   F
 25.7187500000000000  3.7637499999999999  9.7351300000000034   F   F   F
 23.3562499999999993  3.7637499999999999  8.0000000000000018   F   F   F
 23.3562499999999993  5.2692500000000004 10.5975000000000019   F   F   F
 24.5374999999999979  2.2582500000000003  8.8675650000000026   F   F   F
 24.5374999999999979  3.7637499999999999 11.4650650000000027   F   F   F
 22.1749999999999972  0.7527500000000000 11.4650650000000027   F   F   F
 22.1749999999999972  5.2692500000000004  8.8675650000000026   F   F   F
 25.7187500000000000  0.7527500000000000 14.9301300000000019   T   T   T
 25.7187500000000000  5.2692500000000004 17.5276300000000020   T   T   T
 23.3562499999999993  2.2582500000000003 15.7925000000000022   T   T   T
 25.7187500000000000  2.2582500000000003 17.5276300000000020   T   T   T
 23.3562499999999993  0.7527500000000000 13.1950000000000038   T   T   T
 25.7187500000000000  3.7637499999999999 14.9301300000000037   T   T   T
 23.3562499999999993  3.7637499999999999 13.1950000000000038   T   T   T
 23.3562499999999993  5.2692500000000004 15.7925000000000022   T   T   T
 24.5374999999999979  2.2582500000000003 14.0625650000000029   T   T   T
 24.5374999999999979  3.7637499999999999 16.6600650000000030   T   T   T
 22.1749999999999972  0.7527500000000000 16.6600650000000030   T   T   T
 22.1749999999999972  5.2692500000000004 14.0625650000000029   T   T   T
 25.7187500000000000  6.7747500000000000  9.7351300000000034   F   F   F
 25.7187500000000000 11.2912500000000016 12.3326300000000035   F   F   F
 23.3562500000000028  8.2802500000000006 10.5975000000000019   F   F   F
 25.7187500000000000  8.2802500000000006 12.3326300000000018   F   F   F
 23.3562500000000028  6.7747500000000000  8.0000000000000018   F   F   F
 25.7187500000000000  9.7857500000000002  9.7351300000000034   F   F   F
 23.3562500000000028  9.7857500000000002  8.0000000000000036   F   F   F
 23.3562500000000028 11.2912500000000016 10.5975000000000037   F   F   F
 24.5375000000000014  8.2802500000000006  8.8675650000000026   F   F   F
 24.5375000000000014  9.7857500000000002 11.4650650000000027   F   F   F
 22.1750000000000007  6.7747500000000000 11.4650650000000027   F   F   F
 22.1750000000000007 11.2912500000000016  8.8675650000000026   F   F   F
 25.7187500000000000  6.7747500000000000 14.9301300000000019   T   T   T
 25.7187500000000000 11.2912500000000016 17.5276300000000020   T   T   T
 23.3562500000000028  8.2802500000000006 15.7925000000000022   T   T   T
 25.7187500000000000  8.2802500000000006 17.5276300000000020   T   T   T
 23.3562500000000028  6.7747500000000000 13.1950000000000038   T   T   T
 25.7187500000000000  9.7857500000000002 14.9301300000000037   T   T   T
 23.3562500000000028  9.7857500000000002 13.1950000000000038   T   T   T
 23.3562500000000028 11.2912500000000016 15.7925000000000022   T   T   T
 24.5375000000000014  8.2802500000000006 14.0625650000000029   T   T   T
 24.5375000000000014  9.7857500000000002 16.6600650000000030   T   T   T
 22.1750000000000007  6.7747500000000000 16.6600650000000030   T   T   T
 22.1750000000000007 11.2912500000000016 14.0625650000000029   T   T   T
 25.7187500000000000 12.7967500000000012  9.7351300000000034   F   F   F
 25.7187500000000000 17.3132500000000000 12.3326300000000053   F   F   F
 23.3562500000000028 14.3022500000000008 10.5975000000000037   F   F   F
 25.7187500000000000 14.3022500000000008 12.3326300000000035   F   F   F
 23.3562500000000028 12.7967500000000012  8.0000000000000036   F   F   F
 25.7187500000000000 15.8077500000000004  9.7351300000000034   F   F   F
 23.3562500000000028 15.8077500000000004  8.0000000000000036   F   F   F
 23.3562500000000028 17.3132500000000000 10.5975000000000037   F   F   F
 24.5375000000000014 14.3022500000000008  8.8675650000000026   F   F   F
 24.5375000000000014 15.8077500000000004 11.4650650000000027   F   F   F
 22.1750000000000007 12.7967500000000012 11.4650650000000027   F   F   F
 22.1750000000000007 17.3132500000000000  8.8675650000000026   F   F   F
 25.7187500000000000 12.7967500000000012 14.9301300000000055   T   T   T
 25.7187500000000000 17.3132500000000000 17.5276300000000020   T   T   T
 23.3562500000000028 14.3022500000000008 15.7925000000000022   T   T   T
 25.7187500000000000 14.3022500000000008 17.5276300000000020   T   T   T
 23.3562500000000028 12.7967500000000012 13.1950000000000038   T   T   T
 25.7187500000000000 15.8077500000000004 14.9301300000000055   T   T   T
 23.3562500000000028 15.8077500000000004 13.1950000000000038   T   T   T
 23.3562500000000028 17.3132500000000000 15.7925000000000040   T   T   T
 24.5375000000000014 14.3022500000000008 14.0625650000000029   T   T   T
 24.5375000000000014 15.8077500000000004 16.6600650000000030   T   T   T
 22.1750000000000007 12.7967500000000012 16.6600650000000030   T   T   T
 22.1750000000000007 17.3132500000000000 14.0625650000000029   T   T   T
 30.4437499999999979  0.7527500000000000  9.7351300000000034   F   F   F
 30.4437499999999979  5.2692500000000004 12.3326300000000035   F   F   F
 28.0812499999999972  2.2582500000000003 10.5975000000000019   F   F   F
 30.4437499999999979  2.2582500000000003 12.3326300000000018   F   F   F
 28.0812499999999972  0.7527500000000000  8.0000000000000018   F   F   F
 30.4437499999999979  3.7637499999999999  9.7351300000000034   F   F   F
 28.0812500000000007  3.7637499999999999  8.0000000000000036   F   F   F
 28.0812500000000007  5.2692500000000004 10.5975000000000037   F   F   F
 29.2624999999999993  2.2582500000000003  8.8675650000000026   F   F   F
 29.2624999999999993  3.7637499999999999 11.4650650000000027   F   F   F
 26.8999999999999986  0.7527500000000000 11.4650650000000027   F   F   F
 26.8999999999999986  5.2692500000000004  8.8675650000000026   F   F   F
 30.4437499999999979  0.7527500000000000 14.9301300000000019   T   T   T
 30.4437499999999979  5.2692500000000004 17.5276300000000020   T   T   T
 28.0812499999999972  2.2582500000000003 15.7925000000000022   T   T   T
 30.4437499999999979  2.2582500000000003 17.5276300000000020   T   T   T
 28.0812499999999972  0.7527500000000000 13.1950000000000038   T   T   T
 30.4437499999999979  3.7637499999999999 14.9301300000000037   T   T   T
 28.0812500000000007  3.7637499999999999 13.1950000000000038   T   T   T
 28.0812500000000007  5.2692500000000004 15.7925000000000022   T   T   T
 29.2624999999999993  2.2582500000000003 14.0625650000000029   T   T   T
 29.2624999999999993  3.7637499999999999 16.6600650000000030   T   T   T
 26.8999999999999986  0.7527500000000000 16.6600650000000030   T   T   T
 26.8999999999999986  5.2692500000000004 14.0625650000000029   T   T   T
 30.4437499999999979  6.7747500000000000  9.7351300000000034   F   F   F
 30.4437499999999979 11.2912500000000016 12.3326300000000053   F   F   F
 28.0812499999999972  8.2802500000000006 10.5975000000000019   F   F   F
 30.4437499999999979  8.2802500000000006 12.3326300000000035   F   F   F
 28.0812499999999972  6.7747500000000000  8.0000000000000036   F   F   F
 30.4437499999999979  9.7857500000000002  9.7351300000000034   F   F   F
 28.0812500000000007  9.7857500000000002  8.0000000000000036   F   F   F
 28.0812500000000007 11.2912500000000016 10.5975000000000037   F   F   F
 29.2624999999999993  8.2802500000000006  8.8675650000000026   F   F   F
 29.2624999999999993  9.7857500000000002 11.4650650000000027   F   F   F
 26.8999999999999986  6.7747500000000000 11.4650650000000027   F   F   F
 26.8999999999999986 11.2912500000000016  8.8675650000000026   F   F   F
 30.4437499999999979  6.7747500000000000 14.9301300000000055   T   T   T
 30.4437499999999979 11.2912500000000016 17.5276300000000020   T   T   T
 28.0812499999999972  8.2802500000000006 15.7925000000000022   T   T   T
 30.4437499999999979  8.2802500000000006 17.5276300000000020   T   T   T
 28.0812499999999972  6.7747500000000000 13.1950000000000038   T   T   T
 30.4437499999999979  9.7857500000000002 14.9301300000000055   T   T   T
 28.0812500000000007  9.7857500000000002 13.1950000000000038   T   T   T
 28.0812500000000007 11.2912500000000016 15.7925000000000040   T   T   T
 29.2624999999999993  8.2802500000000006 14.0625650000000029   T   T   T
 29.2624999999999993  9.7857500000000002 16.6600650000000030   T   T   T
 26.8999999999999986  6.7747500000000000 16.6600650000000030   T   T   T
 26.8999999999999986 11.2912500000000016 14.0625650000000029   T   T   T
 30.4437500000000014 12.7967500000000012  9.7351300000000034   F   F   F
 30.4437500000000014 17.3132500000000000 12.3326300000000053   F   F   F
 28.0812500000000043 14.3022500000000008 10.5975000000000037   F   F   F
 30.4437500000000014 14.3022500000000008 12.3326300000000035   F   F   F
 28.0812500000000007 12.7967500000000012  8.0000000000000036   F   F   F
 30.4437500000000014 15.8077500000000004  9.7351300000000034   F   F   F
 28.0812500000000043 15.8077500000000004  8.0000000000000036   F   F   F
 28.0812500000000043 17.3132500000000000 10.5975000000000037   F   F   F
 29.2625000000000028 14.3022500000000008  8.8675650000000026   F   F   F
 29.2625000000000028 15.8077500000000004 11.4650650000000027   F   F   F
 26.9000000000000021 12.7967500000000012 11.4650650000000027   F   F   F
 26.9000000000000021 17.3132500000000000  8.8675650000000026   F   F   F
 30.4437500000000014 12.7967500000000012 14.9301300000000055   T   T   T
 30.4437500000000014 17.3132500000000000 17.5276300000000020   T   T   T
 28.0812500000000043 14.3022500000000008 15.7925000000000022   T   T   T
 30.4437500000000014 14.3022500000000008 17.5276300000000020   T   T   T
 28.0812500000000007 12.7967500000000012 13.1950000000000038   T   T   T
 30.4437500000000014 15.8077500000000004 14.9301300000000055   T   T   T
 28.0812500000000043 15.8077500000000004 13.1950000000000038   T   T   T
 28.0812500000000043 17.3132500000000000 15.7925000000000040   T   T   T
 29.2625000000000028 14.3022500000000008 14.0625650000000029   T   T   T
 29.2625000000000028 15.8077500000000004 16.6600650000000030   T   T   T
 26.9000000000000021 12.7967500000000012 16.6600650000000030   T   T   T
 26.9000000000000021 17.3132500000000000 14.0625650000000029   T   T   T
 35.1687500000000028  0.7527500000000000  9.7351300000000034   F   F   F
 35.1687500000000028  5.2692500000000004 12.3326300000000053   F   F   F
 32.8062499999999986  2.2582500000000003 10.5975000000000019   F   F   F
 35.1687500000000028  2.2582500000000003 12.3326300000000035   F   F   F
 32.8062499999999986  0.7527500000000000  8.0000000000000036   F   F   F
 35.1687500000000028  3.7637499999999999  9.7351300000000034   F   F   F
 32.8062500000000057  3.7637499999999999  8.0000000000000036   F   F   F
 32.8062500000000057  5.2692500000000004 10.5975000000000037   F   F   F
 33.9874999999999972  2.2582500000000003  8.8675650000000026   F   F   F
 33.9874999999999972  3.7637499999999999 11.4650650000000027   F   F   F
 31.6250000000000000  0.7527500000000000 11.4650650000000027   F   F   F
 31.6250000000000000  5.2692500000000004  8.8675650000000026   F   F   F
 35.1687500000000028  0.7527500000000000 14.9301300000000055   T   T   T
 35.1687500000000028  5.2692500000000004 17.5276300000000020   T   T   T
 32.8062499999999986  2.2582500000000003 15.7925000000000022   T   T   T
 35.1687500000000028  2.2582500000000003 17.5276300000000020   T   T   T
 32.8062499999999986  0.7527500000000000 13.1950000000000038   T   T   T
 35.1687500000000028  3.7637499999999999 14.9301300000000055   T   T   T
 32.8062500000000057  3.7637499999999999 13.1950000000000038   T   T   T
 32.8062500000000057  5.2692500000000004 15.7925000000000040   T   T   T
 33.9874999999999972  2.2582500000000003 14.0625650000000029   T   T   T
 33.9874999999999972  3.7637499999999999 16.6600650000000030   T   T   T
 31.6250000000000000  0.7527500000000000 16.6600650000000030   T   T   T
 31.6250000000000000  5.2692500000000004 14.0625650000000029   T   T   T
 35.1687500000000028  6.7747500000000000  9.7351300000000034   F   F   F
 35.1687500000000028 11.2912500000000016 12.3326300000000053   F   F   F
 32.8062499999999986  8.2802500000000006 10.5975000000000037   F   F   F
 35.1687500000000028  8.2802500000000006 12.3326300000000035   F   F   F
 32.8062499999999986  6.7747500000000000  8.0000000000000036   F   F   F
 35.1687500000000028  9.7857500000000002  9.7351300000000034   F   F   F
 32.8062500000000057  9.7857500000000002  8.0000000000000036   F   F   F
 32.8062500000000057 11.2912500000000016 10.5975000000000037   F   F   F
 33.9874999999999972  8.2802500000000006  8.8675650000000026   F   F   F
 33.9874999999999972  9.7857500000000002 11.4650650000000027   F   F   F
 31.6250000000000000  6.7747500000000000 11.4650650000000027   F   F   F
 31.6250000000000000 11.2912500000000016  8.8675650000000026   F   F   F
 35.1687500000000028  6.7747500000000000 14.9301300000000055   T   T   T
 35.1687500000000028 11.2912500000000016 17.5276300000000020   T   T   T
 32.8062499999999986  8.2802500000000006 15.7925000000000022   T   T   T
 35.1687500000000028  8.2802500000000006 17.5276300000000020   T   T   T
 32.8062499999999986  6.7747500000000000 13.1950000000000038   T   T   T
 35.1687500000000028  9.7857500000000002 14.9301300000000055   T   T   T
 32.8062500000000057  9.7857500000000002 13.1950000000000038   T   T   T
 32.8062500000000057 11.2912500000000016 15.7925000000000040   T   T   T
 33.9874999999999972  8.2802500000000006 14.0625650000000029   T   T   T
 33.9874999999999972  9.7857500000000002 16.6600650000000030   T   T   T
 31.6250000000000000  6.7747500000000000 16.6600650000000030   T   T   T
 31.6250000000000000 11.2912500000000016 14.0625650000000029   T   T   T
 35.1687500000000028 12.7967500000000012  9.7351300000000034   F   F   F
 35.1687500000000028 17.3132500000000000 12.3326300000000053   F   F   F
 32.8062500000000057 14.3022500000000008 10.5975000000000037   F   F   F
 35.1687500000000028 14.3022500000000008 12.3326300000000035   F   F   F
 32.8062500000000057 12.7967500000000012  8.0000000000000036   F   F   F
 35.1687500000000028 15.8077500000000004  9.7351300000000052   F   F   F
 32.8062500000000057 15.8077500000000004  8.0000000000000036   F   F   F
 32.8062500000000057 17.3132500000000000 10.5975000000000037   F   F   F
 33.9875000000000043 14.3022500000000008  8.8675650000000044   F   F   F
 33.9875000000000043 15.8077500000000004 11.4650650000000045   F   F   F
 31.6250000000000036 12.7967500000000012 11.4650650000000027   F   F   F
 31.6250000000000036 17.3132500000000000  8.8675650000000044   F   F   F
 35.1687500000000028 12.7967500000000012 14.9301300000000055   T   T   T
 35.1687500000000028 17.3132500000000000 17.5276300000000020   T   T   T
 32.8062500000000057 14.3022500000000008 15.7925000000000022   T   T   T
 35.1687500000000028 14.3022500000000008 17.5276300000000020   T   T   T
 32.8062500000000057 12.7967500000000012 13.1950000000000038   T   T   T
 35.1687500000000028 15.8077500000000004 14.9301300000000055   T   T   T
 32.8062500000000057 15.8077500000000004 13.1950000000000038   T   T   T
 32.8062500000000057 17.3132500000000000 15.7925000000000040   T   T   T
 33.9875000000000043 14.3022500000000008 14.0625650000000029   T   T   T
 33.9875000000000043 15.8077500000000004 16.6600650000000030   T   T   T
 31.6250000000000036 12.7967500000000012 16.6600650000000030   T   T   T
 31.6250000000000036 17.3132500000000000 14.0625650000000029   T   T   T
 39.8937499999999972  0.7527500000000000  9.7351300000000034   F   F   F
 39.8937499999999972  5.2692500000000004 12.3326300000000053   F   F   F
 37.5312500000000000  2.2582500000000003 10.5975000000000037   F   F   F
 39.8937499999999972  2.2582500000000003 12.3326300000000035   F   F   F
 37.5312500000000000  0.7527500000000000  8.0000000000000036   F   F   F
 39.8937499999999972  3.7637499999999999  9.7351300000000034   F   F   F
 37.5312500000000000  3.7637499999999999  8.0000000000000036   F   F   F
 37.5312500000000000  5.2692500000000004 10.5975000000000037   F   F   F
 38.7124999999999986  2.2582500000000003  8.8675650000000026   F   F   F
 38.7124999999999986  3.7637499999999999 11.4650650000000027   F   F   F
 36.3499999999999943  0.7527500000000000 11.4650650000000027   F   F   F
 36.3499999999999943  5.2692500000000004  8.8675650000000026   F   F   F
 39.8937499999999972  0.7527500000000000 14.9301300000000055   T   T   T
 39.8937499999999972  5.2692500000000004 17.5276300000000020   T   T   T
 37.5312500000000000  2.2582500000000003 15.7925000000000022   T   T   T
 39.8937499999999972  2.2582500000000003 17.5276300000000020   T   T   T
 37.5312500000000000  0.7527500000000000 13.1950000000000038   T   T   T
 39.8937499999999972  3.7637499999999999 14.9301300000000055   T   T   T
 37.5312500000000000  3.7637499999999999 13.1950000000000038   T   T   T
 37.5312500000000000  5.2692500000000004 15.7925000000000040   T   T   T
 38.7124999999999986  2.2582500000000003 14.0625650000000029   T   T   T
 38.7124999999999986  3.7637499999999999 16.6600650000000030   T   T   T
 36.3499999999999943  0.7527500000000000 16.6600650000000030   T   T   T
 36.3499999999999943  5.2692500000000004 14.0625650000000029   T   T   T
 39.8937499999999972  6.7747500000000000  9.7351300000000034   F   F   F
 39.8937499999999972 11.2912500000000016 12.3326300000000053   F   F   F
 37.5312500000000000  8.2802500000000006 10.5975000000000037   F   F   F
 39.8937499999999972  8.2802500000000006 12.3326300000000035   F   F   F
 37.5312500000000000  6.7747500000000000  8.0000000000000036   F   F   F
 39.8937499999999972  9.7857500000000002  9.7351300000000052   F   F   F
 37.5312500000000000  9.7857500000000002  8.0000000000000036   F   F   F
 37.5312500000000000 11.2912500000000016 10.5975000000000037   F   F   F
 38.7124999999999986  8.2802500000000006  8.8675650000000026   F   F   F
 38.7124999999999986  9.7857500000000002 11.4650650000000045   F   F   F
 36.3499999999999943  6.7747500000000000 11.4650650000000027   F   F   F
 36.3499999999999943 11.2912500000000016  8.8675650000000026   F   F   F
 39.8937499999999972  6.7747500000000000 14.9301300000000055   T   T   T
 39.8937499999999972 11.2912500000000016 17.5276300000000020   T   T   T
 37.5312500000000000  8.2802500000000006 15.7925000000000022   T   T   T
 39.8937499999999972  8.2802500000000006 17.5276300000000020   T   T   T
 37.5312500000000000  6.7747500000000000 13.1950000000000038   T   T   T
 39.8937499999999972  9.7857500000000002 14.9301300000000055   T   T   T
 37.5312500000000000  9.7857500000000002 13.1950000000000038   T   T   T
 37.5312500000000000 11.2912500000000016 15.7925000000000040   T   T   T
 38.7124999999999986  8.2802500000000006 14.0625650000000029   T   T   T
 38.7124999999999986  9.7857500000000002 16.6600650000000030   T   T   T
 36.3499999999999943  6.7747500000000000 16.6600650000000030   T   T   T
 36.3499999999999943 11.2912500000000016 14.0625650000000029   T   T   T
 39.8937499999999972 12.7967500000000012  9.7351300000000052   F   F   F
 39.8937499999999972 17.3132500000000000 12.3326300000000053   F   F   F
 37.5312500000000000 14.3022500000000008 10.5975000000000037   F   F   F
 39.8937499999999972 14.3022500000000008 12.3326300000000053   F   F   F
 37.5312500000000000 12.7967500000000012  8.0000000000000036   F   F   F
 39.8937499999999972 15.8077500000000004  9.7351300000000052   F   F   F
 37.5312500000000000 15.8077500000000004  8.0000000000000036   F   F   F
 37.5312500000000000 17.3132500000000000 10.5975000000000037   F   F   F
 38.7125000000000057 14.3022500000000008  8.8675650000000044   F   F   F
 38.7125000000000057 15.8077500000000004 11.4650650000000045   F   F   F
 36.3500000000000014 12.7967500000000012 11.4650650000000045   F   F   F
 36.3500000000000014 17.3132500000000000  8.8675650000000044   F   F   F
 39.8937499999999972 12.7967500000000012 14.9301300000000055   T   T   T
 39.8937499999999972 17.3132500000000000 17.5276300000000056   T   T   T
 37.5312500000000000 14.3022500000000008 15.7925000000000040   T   T   T
 39.8937499999999972 14.3022500000000008 17.5276300000000020   T   T   T
 37.5312500000000000 12.7967500000000012 13.1950000000000038   T   T   T
 39.8937499999999972 15.8077500000000004 14.9301300000000055   T   T   T
 37.5312500000000000 15.8077500000000004 13.1950000000000038   T   T   T
 37.5312500000000000 17.3132500000000000 15.7925000000000040   T   T   T
 38.7125000000000057 14.3022500000000008 14.0625650000000046   T   T   T
 38.7125000000000057 15.8077500000000004 16.6600650000000030   T   T   T
 36.3500000000000014 12.7967500000000012 16.6600650000000030   T   T   T
 36.3500000000000014 17.3132500000000000 14.0625650000000046   T   T   T
 44.6187499999999986  0.7527500000000000  9.7351300000000034   F   F   F
 44.6187499999999986  5.2692500000000004 12.3326300000000053   F   F   F
 42.2562499999999943  2.2582500000000003 10.5975000000000037   F   F   F
 44.6187499999999986  2.2582500000000003 12.3326300000000035   F   F   F
 42.2562499999999943  0.7527500000000000  8.0000000000000036   F   F   F
 44.6187499999999986  3.7637499999999999  9.7351300000000052   F   F   F
 42.2562499999999943  3.7637499999999999  8.0000000000000036   F   F   F
 42.2562499999999943  5.2692500000000004 10.5975000000000037   F   F   F
 43.4374999999999929  2.2582500000000003  8.8675650000000026   F   F   F
 43.4374999999999929  3.7637499999999999 11.4650650000000045   F   F   F
 41.0749999999999957  0.7527500000000000 11.4650650000000027   F   F   F
 41.0749999999999957  5.2692500000000004  8.8675650000000026   F   F   F
 44.6187499999999986  0.7527500000000000 14.9301300000000055   T   T   T
 44.6187499999999986  5.2692500000000004 17.5276300000000020   T   T   T
 42.2562499999999943  2.2582500000000003 15.7925000000000022   T   T   T
 44.6187499999999986  2.2582500000000003 17.5276300000000020   T   T   T
 42.2562499999999943  0.7527500000000000 13.1950000000000038   T   T   T
 44.6187499999999986  3.7637499999999999 14.9301300000000055   T   T   T
 42.2562499999999943  3.7637499999999999 13.1950000000000038   T   T   T
 42.2562499999999943  5.2692500000000004 15.7925000000000040   T   T   T
 43.4374999999999929  2.2582500000000003 14.0625650000000029   T   T   T
 43.4374999999999929  3.7637499999999999 16.6600650000000030   T   T   T
 41.0749999999999957  0.7527500000000000 16.6600650000000030   T   T   T
 41.0749999999999957  5.2692500000000004 14.0625650000000029   T   T   T
 44.6187499999999986  6.7747500000000000  9.7351300000000034   F   F   F
 44.6187499999999986 11.2912500000000016 12.3326300000000053   F   F   F
 42.2562499999999943  8.2802500000000006 10.5975000000000037   F   F   F
 44.6187499999999986  8.2802500000000006 12.3326300000000053   F   F   F
 42.2562499999999943  6.7747500000000000  8.0000000000000036   F   F   F
 44.6187499999999986  9.7857500000000002  9.7351300000000052   F   F   F
 42.2562499999999943  9.7857500000000002  8.0000000000000036   F   F   F
 42.2562499999999943 11.2912500000000016 10.5975000000000037   F   F   F
 43.4374999999999929  8.2802500000000006  8.8675650000000044   F   F   F
 43.4374999999999929  9.7857500000000002 11.4650650000000045   F   F   F
 41.0749999999999957  6.7747500000000000 11.4650650000000027   F   F   F
 41.0749999999999957 11.2912500000000016  8.8675650000000044   F   F   F
 44.6187499999999986  6.7747500000000000 14.9301300000000055   T   T   T
 44.6187499999999986 11.2912500000000016 17.5276300000000056   T   T   T
 42.2562499999999943  8.2802500000000006 15.7925000000000040   T   T   T
 44.6187499999999986  8.2802500000000006 17.5276300000000020   T   T   T
 42.2562499999999943  6.7747500000000000 13.1950000000000038   T   T   T
 44.6187499999999986  9.7857500000000002 14.9301300000000055   T   T   T
 42.2562499999999943  9.7857500000000002 13.1950000000000038   T   T   T
 42.2562499999999943 11.2912500000000016 15.7925000000000040   T   T   T
 43.4374999999999929  8.2802500000000006 14.0625650000000046   T   T   T
 43.4374999999999929  9.7857500000000002 16.6600650000000030   T   T   T
 41.0749999999999957  6.7747500000000000 16.6600650000000030   T   T   T
 41.0749999999999957 11.2912500000000016 14.0625650000000046   T   T   T
 44.6187499999999986 12.7967500000000012  9.7351300000000052   F   F   F
 44.6187499999999986 17.3132500000000000 12.3326300000000053   F   F   F
 42.2562499999999943 14.3022500000000008 10.5975000000000037   F   F   F
 44.6187499999999986 14.3022500000000008 12.3326300000000053   F   F   F
 42.2562499999999943 12.7967500000000012  8.0000000000000036   F   F   F
 44.6187499999999986 15.8077500000000004  9.7351300000000052   F   F   F
 42.2562499999999943 15.8077500000000004  8.0000000000000036   F   F   F
 42.2562499999999943 17.3132500000000000 10.5975000000000037   F   F   F
 43.4374999999999929 14.3022500000000008  8.8675650000000044   F   F   F
 43.4374999999999929 15.8077500000000004 11.4650650000000045   F   F   F
 41.0749999999999957 12.7967500000000012 11.4650650000000045   F   F   F
 41.0749999999999957 17.3132500000000000  8.8675650000000044   F   F   F
 44.6187499999999986 12.7967500000000012 14.9301300000000055   T   T   T
 44.6187499999999986 17.3132500000000000 17.5276300000000056   T   T   T
 42.2562499999999943 14.3022500000000008 15.7925000000000040   T   T   T
 44.6187499999999986 14.3022500000000008 17.5276300000000020   T   T   T
 42.2562499999999943 12.7967500000000012 13.1950000000000038   T   T   T
 44.6187499999999986 15.8077500000000004 14.9301300000000055   T   T   T
 42.2562499999999943 15.8077500000000004 13.1950000000000038   T   T   T
 42.2562499999999943 17.3132500000000000 15.7925000000000040   T   T   T
 43.4374999999999929 14.3022500000000008 14.0625650000000046   T   T   T
 43.4374999999999929 15.8077500000000004 16.6600650000000030   T   T   T
 41.0749999999999957 12.7967500000000012 16.6600650000000030   T   T   T
 41.0749999999999957 17.3132500000000000 14.0625650000000046   T   T   T
 49.3437500000000000  0.7527500000000000  9.7351300000000034   F   F   F
 49.3437500000000000  5.2692500000000004 12.3326300000000053   F   F   F
 46.9812499999999957  2.2582500000000003 10.5975000000000037   F   F   F
 49.3437500000000000  2.2582500000000003 12.3326300000000053   F   F   F
 46.9812499999999957  0.7527500000000000  8.0000000000000036   F   F   F
 49.3437500000000000  3.7637499999999999  9.7351300000000052   F   F   F
 46.9812499999999957  3.7637499999999999  8.0000000000000036   F   F   F
 46.9812499999999957  5.2692500000000004 10.5975000000000037   F   F   F
 48.1624999999999943  2.2582500000000003  8.8675650000000044   F   F   F
 48.1624999999999943  3.7637499999999999 11.4650650000000045   F   F   F
 45.7999999999999972  0.7527500000000000 11.4650650000000027   F   F   F
 45.7999999999999972  5.2692500000000004  8.8675650000000044   F   F   F
 49.3437500000000000  0.7527500000000000 14.9301300000000055   T   T   T
 49.3437500000000000  5.2692500000000004 17.5276300000000056   T   T   T
 46.9812499999999957  2.2582500000000003 15.7925000000000040   T   T   T
 49.3437500000000000  2.2582500000000003 17.5276300000000020   T   T   T
 46.9812499999999957  0.7527500000000000 13.1950000000000038   T   T   T
 49.3437500000000000  3.7637499999999999 14.9301300000000055   T   T   T
 46.9812499999999957  3.7637499999999999 13.1950000000000038   T   T   T
 46.9812499999999957  5.2692500000000004 15.7925000000000040   T   T   T
 48.1624999999999943  2.2582500000000003 14.0625650000000046   T   T   T
 48.1624999999999943  3.7637499999999999 16.6600650000000030   T   T   T
 45.7999999999999972  0.7527500000000000 16.6600650000000030   T   T   T
 45.7999999999999972  5.2692500000000004 14.0625650000000046   T   T   T
 49.3437500000000000  6.7747500000000000  9.7351300000000052   F   F   F
 49.3437500000000000 11.2912500000000016 12.3326300000000053   F   F   F
 46.9812499999999957  8.2802500000000006 10.5975000000000037   F   F   F
 49.3437500000000000  8.2802500000000006 12.3326300000000053   F   F   F
 46.9812499999999957  6.7747500000000000  8.0000000000000036   F   F   F
 49.3437500000000000  9.7857500000000002  9.7351300000000052   F   F   F
 46.9812499999999957  9.7857500000000002  8.0000000000000036   F   F   F
 46.9812499999999957 11.2912500000000016 10.5975000000000037   F   F   F
 48.1624999999999943  8.2802500000000006  8.8675650000000044   F   F   F
 48.1624999999999943  9.7857500000000002 11.4650650000000045   F   F   F
 45.7999999999999972  6.7747500000000000 11.4650650000000045   F   F   F
 45.7999999999999972 11.2912500000000016  8.8675650000000044   F   F   F
 49.3437500000000000  6.7747500000000000 14.9301300000000055   T   T   T
 49.3437500000000000 11.2912500000000016 17.5276300000000056   T   T   T
 46.9812499999999957  8.2802500000000006 15.7925000000000040   T   T   T
 49.3437500000000000  8.2802500000000006 17.5276300000000020   T   T   T
 46.9812499999999957  6.7747500000000000 13.1950000000000038   T   T   T
 49.3437500000000000  9.7857500000000002 14.9301300000000055   T   T   T
 46.9812499999999957  9.7857500000000002 13.1950000000000038   T   T   T
 46.9812499999999957 11.2912500000000016 15.7925000000000040   T   T   T
 48.1624999999999943  8.2802500000000006 14.0625650000000046   T   T   T
 48.1624999999999943  9.7857500000000002 16.6600650000000030   T   T   T
 45.7999999999999972  6.7747500000000000 16.6600650000000030   T   T   T
 45.7999999999999972 11.2912500000000016 14.0625650000000046   T   T   T
 49.3437500000000000 12.7967500000000012  9.7351300000000052   F   F   F
 49.3437500000000000 17.3132500000000000 12.3326300000000053   F   F   F
 46.9812499999999957 14.3022500000000008 10.5975000000000037   F   F   F
 49.3437500000000000 14.3022500000000008 12.3326300000000053   F   F   F
 46.9812499999999957 12.7967500000000012  8.0000000000000036   F   F   F
 49.3437500000000000 15.8077500000000004  9.7351300000000052   F   F   F
 46.9812499999999957 15.8077500000000004  8.0000000000000053   F   F   F
 46.9812499999999957 17.3132500000000000 10.5975000000000037   F   F   F
 48.1624999999999943 14.3022500000000008  8.8675650000000044   F   F   F
 48.1624999999999943 15.8077500000000004 11.4650650000000045   F   F   F
 45.7999999999999972 12.7967500000000012 11.4650650000000045   F   F   F
 45.7999999999999972 17.3132500000000000  8.8675650000000044   F   F   F
 49.3437500000000000 12.7967500000000012 14.9301300000000055   T   T   T
 49.3437500000000000 17.3132500000000000 17.5276300000000056   T   T   T
 46.9812499999999957 14.3022500000000008 15.7925000000000040   T   T   T
 49.3437500000000000 14.3022500000000008 17.5276300000000020   T   T   T
 46.9812499999999957 12.7967500000000012 13.1950000000000038   T   T   T
 49.3437500000000000 15.8077500000000004 14.9301300000000055   T   T   T
 46.9812499999999957 15.8077500000000004 13.1950000000000038   T   T   T
 46.9812499999999957 17.3132500000000000 15.7925000000000040   T   T   T
 48.1624999999999943 14.3022500000000008 14.0625650000000046   T   T   T
 48.1624999999999943 15.8077500000000004 16.6600650000000030   T   T   T
 45.7999999999999972 12.7967500000000012 16.6600650000000030   T   T   T
 45.7999999999999972 17.3132500000000000 14.0625650000000046   T   T   T
 51.7062499999999972  2.2582500000000003 10.5975000000000037   F   F   F
 51.7062499999999972  0.7527500000000000  8.0000000000000036   F   F   F
 51.7062499999999972  3.7637499999999999  8.0000000000000036   F   F   F
 51.7062499999999972  5.2692500000000004 10.5975000000000037   F   F   F
 52.8874999999999957  2.2582500000000003  8.8675650000000044   F   F   F
 52.8874999999999957  3.7637499999999999 11.4650650000000045   F   F   F
 50.5249999999999986  0.7527500000000000 11.4650650000000045   F   F   F
 50.5249999999999986  5.2692500000000004  8.8675650000000044   F   F   F
 51.7062499999999972  2.2582500000000003 15.7925000000000040   T   T   T
 51.7062499999999972  0.7527500000000000 13.1950000000000038   T   T   T
 51.7062499999999972  3.7637499999999999 13.1950000000000038   T   T   T
 51.7062499999999972  5.2692500000000004 15.7925000000000040   T   T   T
 52.8874999999999957  2.2582500000000003 14.0625650000000046   T   T   T
 52.8874999999999957  3.7637499999999999 16.6600650000000030   T   T   T
 50.5249999999999986  0.7527500000000000 16.6600650000000030   T   T   T
 50.5249999999999986  5.2692500000000004 14.0625650000000046   T   T   T
 51.7062499999999972  8.2802500000000006 10.5975000000000037   F   F   F
 51.7062499999999972  6.7747500000000000  8.0000000000000036   F   F   F
 51.7062499999999972  9.7857500000000002  8.0000000000000053   F   F   F
 51.7062499999999972 11.2912500000000016 10.5975000000000037   F   F   F
 52.8874999999999957  8.2802500000000006  8.8675650000000044   F   F   F
 52.8874999999999957  9.7857500000000002 11.4650650000000045   F   F   F
 50.5249999999999986  6.7747500000000000 11.4650650000000045   F   F   F
 50.5249999999999986 11.2912500000000016  8.8675650000000044   F   F   F
 51.7062499999999972  8.2802500000000006 15.7925000000000040   T   T   T
 51.7062499999999972  6.7747500000000000 13.1950000000000038   T   T   T
 51.7062499999999972  9.7857500000000002 13.1950000000000038   T   T   T
 51.7062499999999972 11.2912500000000016 15.7925000000000040   T   T   T
 52.8874999999999957  8.2802500000000006 14.0625650000000046   T   T   T
 52.8874999999999957  9.7857500000000002 16.6600650000000030   T   T   T
 50.5249999999999986  6.7747500000000000 16.6600650000000030   T   T   T
 50.5249999999999986 11.2912500000000016 14.0625650000000046   T   T   T
 51.7062499999999972 14.3022500000000008 10.5975000000000037   F   F   F
 51.7062499999999972 12.7967500000000012  8.0000000000000053   F   F   F
 51.7062499999999972 15.8077500000000004  8.0000000000000053   F   F   F
 51.7062499999999972 17.3132500000000000 10.5975000000000055   F   F   F
 52.8874999999999957 14.3022500000000008  8.8675650000000044   F   F   F
 52.8874999999999957 15.8077500000000004 11.4650650000000063   F   F   F
 50.5249999999999986 12.7967500000000012 11.4650650000000045   F   F   F
 50.5249999999999986 17.3132500000000000  8.8675650000000044   F   F   F
 51.7062499999999972 14.3022500000000008 15.7925000000000040   T   T   T
 51.7062499999999972 12.7967500000000012 13.1950000000000056   T   T   T
 51.7062499999999972 15.8077500000000004 13.1950000000000056   T   T   T
 51.7062499999999972 17.3132500000000000 15.7925000000000040   T   T   T
 52.8874999999999957 14.3022500000000008 14.0625650000000064   T   T   T
 52.8874999999999957 15.8077500000000004 16.6600650000000030   T   T   T
 50.5249999999999986 12.7967500000000012 16.6600650000000030   T   T   T
 50.5249999999999986 17.3132500000000000 14.0625650000000064   T   T   T
