Mo B  Mo B  Mo B  Mo B  Mo B  Mo B  Mo B  Mo B  Mo B 
 1.0000000000000000
     9.3486000000000011    0.0000000000000000   -0.0000000000000015
     0.0000000000000027   16.9892000000000003   -0.0000000000000027
     0.0000000000000000    0.0000000000000000   27.7905000000000051
 Mo  B   Mo  B   Mo  B   Mo  B   Mo  B   Mo  B   Mo  B   Mo  B   Mo  B  
   8   8   8   8   8   8   8   8   8   8   8   7   8   8   8   8   8   8
Selective dynamics
Cartesian
  0.0000000000000012  7.5941724000000015 10.0000000000000000   F   F   F
  1.5581000000000020 11.8414723999999989 10.0000000000000000   F   F   F
  0.0000000000000022 13.6423275999999998 11.5581000000000014   F   F   F
  0.0000000000000001  0.9004276000000008 10.0000000000000018   F   F   F
  1.5581000000000027 16.0887723999999999 11.5580999999999996   F   F   F
  1.5581000000000016  9.3950275999999988 11.5581000000000014   F   F   F
  1.5581000000000009  5.1477276000000005 10.0000000000000000   F   F   F
  0.0000000000000005  3.3468724000000010 11.5581000000000031   F   F   F
  0.0000000000000016 10.2274984000000000 10.0000000000000000   F   F   F
  1.5581000000000023 14.4747983999999992 10.0000000000000000   F   F   F
  0.0000000000000018 11.0090016000000013 11.5581000000000014   F   F   F
  0.0000000000000025 15.2563015999999987 10.0000000000000000   F   F   F
  1.5581000000000003  1.7328983999999996 11.5581000000000031   F   F   F
  1.5581000000000012  6.7617016000000003 11.5581000000000014   F   F   F
  1.5581000000000005  2.5144016000000002 10.0000000000000018   F   F   F
  0.0000000000000010  5.9801983999999981 11.5581000000000014   F   F   F
  0.0000000000000012  7.5941724000000015 13.1162000000000010   F   F   F
  1.5581000000000020 11.8414723999999989 13.1162000000000010   F   F   F
  0.0000000000000022 13.6423275999999998 14.6742999999999970   T   T   T
  0.0000000000000001  0.9004276000000008 13.1162000000000027   F   F   F
  1.5581000000000027 16.0887723999999999 14.6742999999999970   T   T   T
  1.5581000000000016  9.3950275999999988 14.6743000000000006   T   T   T
  1.5581000000000009  5.1477276000000005 13.1162000000000010   F   F   F
  0.0000000000000005  3.3468724000000010 14.6743000000000006   T   T   T
  0.0000000000000016 10.2274984000000000 13.1162000000000010   F   F   F
  1.5581000000000023 14.4747983999999992 13.1162000000000010   F   F   F
  0.0000000000000018 11.0090016000000013 14.6743000000000006   T   T   T
  0.0000000000000025 15.2563015999999987 13.1162000000000010   F   F   F
  1.5581000000000003  1.7328983999999996 14.6743000000000006   T   T   T
  1.5581000000000012  6.7617016000000003 14.6743000000000006   T   T   T
  1.5581000000000005  2.5144016000000002 13.1162000000000027   F   F   F
  0.0000000000000010  5.9801983999999981 14.6743000000000006   T   T   T
  0.0000000000000012  7.5941724000000015 16.2323999999999984   T   T   T
  1.5581000000000020 11.8414723999999989 16.2323999999999948   T   T   T
  0.0000000000000022 13.6423275999999998 17.7904999999999980   T   T   T
  0.0000000000000001  0.9004276000000008 16.2323999999999984   T   T   T
  1.5581000000000027 16.0887723999999999 17.7904999999999980   T   T   T
  1.5581000000000016  9.3950275999999988 17.7905000000000015   T   T   T
  1.5581000000000009  5.1477276000000005 16.2323999999999984   T   T   T
  0.0000000000000005  3.3468724000000010 17.7905000000000015   T   T   T
  0.0000000000000016 10.2274984000000000 16.2323999999999984   T   T   T
  1.5581000000000023 14.4747983999999992 16.2323999999999948   T   T   T
  0.0000000000000018 11.0090016000000013 17.7905000000000015   T   T   T
  0.0000000000000025 15.2563015999999987 16.2323999999999948   T   T   T
  1.5581000000000003  1.7328983999999996 17.7905000000000015   T   T   T
  1.5581000000000012  6.7617016000000003 17.7905000000000015   T   T   T
  1.5581000000000005  2.5144016000000002 16.2323999999999984   T   T   T
  0.0000000000000010  5.9801983999999981 17.7905000000000015   T   T   T
  3.1162000000000014  7.5941724000000015 10.0000000000000000   F   F   F
  4.6743000000000023 11.8414723999999989 10.0000000000000000   F   F   F
  3.1162000000000023 13.6423275999999998 11.5581000000000014   F   F   F
  3.1162000000000001  0.9004276000000008 10.0000000000000018   F   F   F
  4.6743000000000023 16.0887723999999999 11.5580999999999996   F   F   F
  4.6743000000000015  9.3950275999999988 11.5581000000000014   F   F   F
  4.6743000000000006  5.1477276000000005 10.0000000000000000   F   F   F
  3.1162000000000005  3.3468724000000010 11.5581000000000031   F   F   F
  3.1162000000000019 10.2274984000000000 10.0000000000000000   F   F   F
  4.6743000000000023 14.4747983999999992 10.0000000000000000   F   F   F
  3.1162000000000019 11.0090016000000013 11.5581000000000014   F   F   F
  3.1162000000000027 15.2563015999999987 10.0000000000000000   F   F   F
  4.6743000000000006  1.7328983999999996 11.5581000000000031   F   F   F
  4.6743000000000015  6.7617016000000003 11.5581000000000014   F   F   F
  4.6743000000000006  2.5144016000000002 10.0000000000000018   F   F   F
  3.1162000000000010  5.9801983999999981 11.5581000000000014   F   F   F
  3.1162000000000014  7.5941724000000015 13.1162000000000010   F   F   F
  4.6743000000000023 11.8414723999999989 13.1162000000000010   F   F   F
  3.1162000000000023 13.6423275999999998 14.6742999999999970   T   T   T
  3.1162000000000001  0.9004276000000008 13.1162000000000027   F   F   F
  4.6743000000000023 16.0887723999999999 14.6742999999999970   T   T   T
  4.6743000000000015  9.3950275999999988 14.6743000000000006   T   T   T
  4.6743000000000006  5.1477276000000005 13.1162000000000010   F   F   F
  3.1162000000000005  3.3468724000000010 14.6743000000000006   T   T   T
  3.1162000000000019 10.2274984000000000 13.1162000000000010   F   F   F
  4.6743000000000023 14.4747983999999992 13.1162000000000010   F   F   F
  3.1162000000000019 11.0090016000000013 14.6743000000000006   T   T   T
  3.1162000000000027 15.2563015999999987 13.1162000000000010   F   F   F
  4.6743000000000006  1.7328983999999996 14.6743000000000006   T   T   T
  4.6743000000000015  6.7617016000000003 14.6743000000000006   T   T   T
  4.6743000000000006  2.5144016000000002 13.1162000000000027   F   F   F
  3.1162000000000010  5.9801983999999981 14.6743000000000006   T   T   T
  3.1162000000000014  7.5941724000000015 16.2323999999999984   T   T   T
  4.6743000000000023 11.8414723999999989 16.2323999999999948   T   T   T
  3.1162000000000023 13.6423275999999998 17.7904999999999980   T   T   T
  3.1162000000000001  0.9004276000000008 16.2323999999999984   T   T   T
  4.6743000000000023 16.0887723999999999 17.7904999999999980   T   T   T
  4.6743000000000015  9.3950275999999988 17.7905000000000015   T   T   T
  4.6743000000000006  5.1477276000000005 16.2323999999999984   T   T   T
  3.1162000000000005  3.3468724000000010 17.7905000000000015   T   T   T
  3.1162000000000019 10.2274984000000000 16.2323999999999984   T   T   T
  4.6743000000000023 14.4747983999999992 16.2323999999999948   T   T   T
  3.1162000000000019 11.0090016000000013 17.7905000000000015   T   T   T
  3.1162000000000027 15.2563015999999987 16.2323999999999948   T   T   T
  4.6743000000000006  1.7328983999999996 17.7905000000000015   T   T   T
  4.6743000000000006  2.5144016000000002 16.2323999999999984   T   T   T
  3.1162000000000010  5.9801983999999981 17.7905000000000015   T   T   T
  6.2324000000000011  7.5941724000000015  9.9999999999999982   F   F   F
  7.7905000000000024 11.8414723999999989  9.9999999999999982   F   F   F
  6.2324000000000019 13.6423275999999998 11.5580999999999996   F   F   F
  6.2324000000000002  0.9004276000000008 10.0000000000000000   F   F   F
  7.7905000000000033 16.0887723999999999 11.5580999999999978   F   F   F
  7.7905000000000015  9.3950275999999988 11.5580999999999996   F   F   F
  7.7905000000000015  5.1477276000000005  9.9999999999999982   F   F   F
  6.2324000000000011  3.3468724000000010 11.5581000000000014   F   F   F
  6.2324000000000019 10.2274984000000000  9.9999999999999982   F   F   F
  7.7905000000000024 14.4747983999999992  9.9999999999999982   F   F   F
  6.2324000000000019 11.0090016000000013 11.5580999999999996   F   F   F
  6.2324000000000028 15.2563015999999987  9.9999999999999982   F   F   F
  7.7905000000000006  1.7328983999999996 11.5581000000000014   F   F   F
  7.7905000000000015  6.7617016000000003 11.5580999999999996   F   F   F
  7.7905000000000006  2.5144016000000002 10.0000000000000000   F   F   F
  6.2324000000000011  5.9801983999999981 11.5580999999999996   F   F   F
  6.2324000000000011  7.5941724000000015 13.1161999999999992   F   F   F
  7.7905000000000024 11.8414723999999989 13.1161999999999992   F   F   F
  6.2324000000000019 13.6423275999999998 14.6742999999999970   T   T   T
  6.2324000000000002  0.9004276000000008 13.1162000000000010   F   F   F
  7.7905000000000033 16.0887723999999999 14.6742999999999970   T   T   T
  7.7905000000000015  9.3950275999999988 14.6743000000000006   T   T   T
  7.7905000000000015  5.1477276000000005 13.1161999999999992   F   F   F
  6.2324000000000011  3.3468724000000010 14.6743000000000006   T   T   T
  6.2324000000000019 10.2274984000000000 13.1161999999999992   F   F   F
  7.7905000000000024 14.4747983999999992 13.1161999999999992   F   F   F
  6.2324000000000019 11.0090016000000013 14.6743000000000006   T   T   T
  6.2324000000000028 15.2563015999999987 13.1161999999999992   F   F   F
  7.7905000000000006  1.7328983999999996 14.6743000000000006   T   T   T
  7.7905000000000015  6.7617016000000003 14.6743000000000006   T   T   T
  7.7905000000000006  2.5144016000000002 13.1162000000000010   F   F   F
  6.2324000000000011  5.9801983999999981 14.6743000000000006   T   T   T
  6.2324000000000011  7.5941724000000015 16.2323999999999984   T   T   T
  7.7905000000000024 11.8414723999999989 16.2323999999999948   T   T   T
  6.2324000000000019 13.6423275999999998 17.7904999999999980   T   T   T
  6.2324000000000002  0.9004276000000008 16.2323999999999984   T   T   T
  7.7905000000000033 16.0887723999999999 17.7904999999999980   T   T   T
  7.7905000000000015  9.3950275999999988 17.7905000000000015   T   T   T
  7.7905000000000015  5.1477276000000005 16.2323999999999984   T   T   T
  6.2324000000000011  3.3468724000000010 17.7905000000000015   T   T   T
  6.2324000000000019 10.2274984000000000 16.2323999999999984   T   T   T
  7.7905000000000024 14.4747983999999992 16.2323999999999948   T   T   T
  6.2324000000000019 11.0090016000000013 17.7905000000000015   T   T   T
  6.2324000000000028 15.2563015999999987 16.2323999999999948   T   T   T
  7.7905000000000006  1.7328983999999996 17.7905000000000015   T   T   T
  7.7905000000000015  6.7617016000000003 17.7905000000000015   T   T   T
  7.7905000000000006  2.5144016000000002 16.2323999999999984   T   T   T
  6.2324000000000011  5.9801983999999981 17.7905000000000015   T   T   T
