Mo N  Mo N  Mo N  Mo N  Mo N  Mo N  Mo N  Mo N  Mo N  Mo N  Mo N  Mo N  Mo N  Mo N  Mo N  Mo N  Mo N  Mo N  Mo N  Mo N  Mo N  Mo N  Mo N  Mo N  Mo N  Mo N  Mo N  Mo N  Mo N  Mo N  Mo N  Mo N  Mo N  Mo N  Mo N  Mo N 
 1.0000000000000000
    12.6000000000000014    0.0000000000000000    0.0000000000000000
     0.0000000000000000   12.6000000000000014    0.0000000000000000
     0.0000000000000000    0.0000000000000000   46.0000000000000000
 Mo  N   Mo  N   Mo  N   Mo  N   Mo  N   Mo  N   Mo  N   Mo  N   Mo  N   Mo  N   Mo  N   Mo  N   Mo  N   Mo  N   Mo  N   Mo  N   Mo  N   Mo  N   Mo  N   Mo  N   Mo  N   Mo  N   Mo  N   Mo  N   Mo  N   Mo  N   Mo  N   Mo  N   Mo  N   Mo  N   Mo  N   Mo  N   Mo  N   Mo  N   Mo  N   Mo  N  
   8   4   8   4   8   4   8   4   8   4   8   4   8   4   8   4   8   4   8   4   8   4   8   4   8   4   8   4   8   4   8   4   8   4   8   4   8   4   8   3   8   4   8   4   8   4   8   4   8   4   8   4   8   4   8   4   8   4   8   4   8   4   8   4   8   4   8   4   8   4   8   4
Selective dynamics
Cartesian
  0.0000000000000000  0.0000000000000000  8.0000000000000000   F   F   F
  2.1000000000000001  2.1000000000000001  8.0000000000000000   F   F   F
  2.1000000000000001  0.0000000000000000 10.0000000000000000   F   F   F
  0.0000000000000000  2.1000000000000001 10.0000000000000000   F   F   F
  0.0000000000000000  0.0000000000000000 12.0000000000000000   F   F   F
  2.1000000000000001  2.1000000000000001 12.0000000000000000   F   F   F
  2.1000000000000001  0.0000000000000000 14.0000000000000000   F   F   F
  0.0000000000000000  2.1000000000000001 14.0000000000000000   F   F   F
  2.1000000000000001  0.0000000000000000  8.0000000000000000   F   F   F
  2.1000000000000001  2.1000000000000001 10.0000000000000000   F   F   F
  0.0000000000000000  2.1000000000000001 12.0000000000000000   F   F   F
  0.0000000000000000  0.0000000000000000 14.0000000000000000   F   F   F
  0.0000000000000000  0.0000000000000000 16.0000000000000000   F   F   F
  2.1000000000000001  2.1000000000000001 16.0000000000000000   F   F   F
  2.1000000000000001  0.0000000000000000 18.0000000000000000   F   F   F
  0.0000000000000000  2.1000000000000001 18.0000000000000000   F   F   F
  0.0000000000000000  0.0000000000000000 20.0000000000000000   F   F   F
  2.1000000000000001  2.1000000000000001 20.0000000000000000   F   F   F
  2.1000000000000001  0.0000000000000000 22.0000000000000000   F   F   F
  0.0000000000000000  2.1000000000000001 22.0000000000000000   F   F   F
  2.1000000000000001  0.0000000000000000 16.0000000000000000   F   F   F
  2.1000000000000001  2.1000000000000001 18.0000000000000000   F   F   F
  0.0000000000000000  2.1000000000000001 20.0000000000000000   F   F   F
  0.0000000000000000  0.0000000000000000 22.0000000000000000   F   F   F
  0.0000000000000000  0.0000000000000000 24.0000000000000000   T   T   T
  2.1000000000000001  2.1000000000000001 24.0000000000000000   T   T   T
  2.1000000000000001  0.0000000000000000 26.0000000000000000   T   T   T
  0.0000000000000000  2.1000000000000001 26.0000000000000000   T   T   T
  0.0000000000000000  0.0000000000000000 28.0000000000000000   T   T   T
  2.1000000000000001  2.1000000000000001 28.0000000000000000   T   T   T
  2.1000000000000001  0.0000000000000000 30.0000000000000000   T   T   T
  0.0000000000000000  2.1000000000000001 30.0000000000000000   T   T   T
  2.1000000000000001  0.0000000000000000 24.0000000000000000   T   T   T
  2.1000000000000001  2.1000000000000001 26.0000000000000000   T   T   T
  0.0000000000000000  2.1000000000000001 28.0000000000000000   T   T   T
  0.0000000000000000  0.0000000000000000 30.0000000000000000   T   T   T
  0.0000000000000000  0.0000000000000000 32.0000000000000000   T   T   T
  2.1000000000000001  2.1000000000000001 32.0000000000000000   T   T   T
  2.1000000000000001  0.0000000000000000 34.0000000000000000   T   T   T
  0.0000000000000000  2.1000000000000001 34.0000000000000000   T   T   T
  0.0000000000000000  0.0000000000000000 36.0000000000000000   T   T   T
  2.1000000000000001  2.1000000000000001 36.0000000000000000   T   T   T
  2.1000000000000001  0.0000000000000000 38.0000000000000000   T   T   T
  0.0000000000000000  2.1000000000000001 38.0000000000000000   T   T   T
  2.1000000000000001  0.0000000000000000 32.0000000000000000   T   T   T
  2.1000000000000001  2.1000000000000001 34.0000000000000000   T   T   T
  0.0000000000000000  2.1000000000000001 36.0000000000000000   T   T   T
  0.0000000000000000  0.0000000000000000 38.0000000000000000   T   T   T
  0.0000000000000000  4.2000000000000002  8.0000000000000000   F   F   F
  2.1000000000000001  6.3000000000000007  8.0000000000000000   F   F   F
  2.1000000000000001  4.2000000000000002 10.0000000000000000   F   F   F
  0.0000000000000000  6.3000000000000007 10.0000000000000000   F   F   F
  0.0000000000000000  4.2000000000000002 12.0000000000000000   F   F   F
  2.1000000000000001  6.3000000000000007 12.0000000000000000   F   F   F
  2.1000000000000001  4.2000000000000002 14.0000000000000000   F   F   F
  0.0000000000000000  6.3000000000000007 14.0000000000000000   F   F   F
  2.1000000000000001  4.2000000000000002  8.0000000000000000   F   F   F
  2.1000000000000001  6.3000000000000007 10.0000000000000000   F   F   F
  0.0000000000000000  6.3000000000000007 12.0000000000000000   F   F   F
  0.0000000000000000  4.2000000000000002 14.0000000000000000   F   F   F
  0.0000000000000000  4.2000000000000002 16.0000000000000000   F   F   F
  2.1000000000000001  6.3000000000000007 16.0000000000000000   F   F   F
  2.1000000000000001  4.2000000000000002 18.0000000000000000   F   F   F
  0.0000000000000000  6.3000000000000007 18.0000000000000000   F   F   F
  0.0000000000000000  4.2000000000000002 20.0000000000000000   F   F   F
  2.1000000000000001  6.3000000000000007 20.0000000000000000   F   F   F
  2.1000000000000001  4.2000000000000002 22.0000000000000000   F   F   F
  0.0000000000000000  6.3000000000000007 22.0000000000000000   F   F   F
  2.1000000000000001  4.2000000000000002 16.0000000000000000   F   F   F
  2.1000000000000001  6.3000000000000007 18.0000000000000000   F   F   F
  0.0000000000000000  6.3000000000000007 20.0000000000000000   F   F   F
  0.0000000000000000  4.2000000000000002 22.0000000000000000   F   F   F
  0.0000000000000000  4.2000000000000002 24.0000000000000000   T   T   T
  2.1000000000000001  6.3000000000000007 24.0000000000000000   T   T   T
  2.1000000000000001  4.2000000000000002 26.0000000000000000   T   T   T
  0.0000000000000000  6.3000000000000007 26.0000000000000000   T   T   T
  0.0000000000000000  4.2000000000000002 28.0000000000000000   T   T   T
  2.1000000000000001  6.3000000000000007 28.0000000000000000   T   T   T
  2.1000000000000001  4.2000000000000002 30.0000000000000000   T   T   T
  0.0000000000000000  6.3000000000000007 30.0000000000000000   T   T   T
  2.1000000000000001  4.2000000000000002 24.0000000000000000   T   T   T
  2.1000000000000001  6.3000000000000007 26.0000000000000000   T   T   T
  0.0000000000000000  6.3000000000000007 28.0000000000000000   T   T   T
  0.0000000000000000  4.2000000000000002 30.0000000000000000   T   T   T
  0.0000000000000000  4.2000000000000002 32.0000000000000000   T   T   T
  2.1000000000000001  6.3000000000000007 32.0000000000000000   T   T   T
  2.1000000000000001  4.2000000000000002 34.0000000000000000   T   T   T
  0.0000000000000000  6.3000000000000007 34.0000000000000000   T   T   T
  0.0000000000000000  4.2000000000000002 36.0000000000000000   T   T   T
  2.1000000000000001  6.3000000000000007 36.0000000000000000   T   T   T
  2.1000000000000001  4.2000000000000002 38.0000000000000000   T   T   T
  0.0000000000000000  6.3000000000000007 38.0000000000000000   T   T   T
  2.1000000000000001  4.2000000000000002 32.0000000000000000   T   T   T
  2.1000000000000001  6.3000000000000007 34.0000000000000000   T   T   T
  0.0000000000000000  6.3000000000000007 36.0000000000000000   T   T   T
  0.0000000000000000  4.2000000000000002 38.0000000000000000   T   T   T
  0.0000000000000000  8.4000000000000004  8.0000000000000000   F   F   F
  2.1000000000000001 10.5000000000000000  8.0000000000000000   F   F   F
  2.1000000000000001  8.4000000000000004 10.0000000000000000   F   F   F
  0.0000000000000000 10.5000000000000000 10.0000000000000000   F   F   F
  0.0000000000000000  8.4000000000000004 12.0000000000000000   F   F   F
  2.1000000000000001 10.5000000000000000 12.0000000000000000   F   F   F
  2.1000000000000001  8.4000000000000004 14.0000000000000000   F   F   F
  0.0000000000000000 10.5000000000000000 14.0000000000000000   F   F   F
  2.1000000000000001  8.4000000000000004  8.0000000000000000   F   F   F
  2.1000000000000001 10.5000000000000000 10.0000000000000000   F   F   F
  0.0000000000000000 10.5000000000000000 12.0000000000000000   F   F   F
  0.0000000000000000  8.4000000000000004 14.0000000000000000   F   F   F
  0.0000000000000000  8.4000000000000004 16.0000000000000000   F   F   F
  2.1000000000000001 10.5000000000000000 16.0000000000000000   F   F   F
  2.1000000000000001  8.4000000000000004 18.0000000000000000   F   F   F
  0.0000000000000000 10.5000000000000000 18.0000000000000000   F   F   F
  0.0000000000000000  8.4000000000000004 20.0000000000000000   F   F   F
  2.1000000000000001 10.5000000000000000 20.0000000000000000   F   F   F
  2.1000000000000001  8.4000000000000004 22.0000000000000000   F   F   F
  0.0000000000000000 10.5000000000000000 22.0000000000000000   F   F   F
  2.1000000000000001  8.4000000000000004 16.0000000000000000   F   F   F
  2.1000000000000001 10.5000000000000000 18.0000000000000000   F   F   F
  0.0000000000000000 10.5000000000000000 20.0000000000000000   F   F   F
  0.0000000000000000  8.4000000000000004 22.0000000000000000   F   F   F
  0.0000000000000000  8.4000000000000004 24.0000000000000000   T   T   T
  2.1000000000000001 10.5000000000000000 24.0000000000000000   T   T   T
  2.1000000000000001  8.4000000000000004 26.0000000000000000   T   T   T
  0.0000000000000000 10.5000000000000000 26.0000000000000000   T   T   T
  0.0000000000000000  8.4000000000000004 28.0000000000000000   T   T   T
  2.1000000000000001 10.5000000000000000 28.0000000000000000   T   T   T
  2.1000000000000001  8.4000000000000004 30.0000000000000000   T   T   T
  0.0000000000000000 10.5000000000000000 30.0000000000000000   T   T   T
  2.1000000000000001  8.4000000000000004 24.0000000000000000   T   T   T
  2.1000000000000001 10.5000000000000000 26.0000000000000000   T   T   T
  0.0000000000000000 10.5000000000000000 28.0000000000000000   T   T   T
  0.0000000000000000  8.4000000000000004 30.0000000000000000   T   T   T
  0.0000000000000000  8.4000000000000004 32.0000000000000000   T   T   T
  2.1000000000000001 10.5000000000000000 32.0000000000000000   T   T   T
  2.1000000000000001  8.4000000000000004 34.0000000000000000   T   T   T
  0.0000000000000000 10.5000000000000000 34.0000000000000000   T   T   T
  0.0000000000000000  8.4000000000000004 36.0000000000000000   T   T   T
  2.1000000000000001 10.5000000000000000 36.0000000000000000   T   T   T
  2.1000000000000001  8.4000000000000004 38.0000000000000000   T   T   T
  0.0000000000000000 10.5000000000000000 38.0000000000000000   T   T   T
  2.1000000000000001  8.4000000000000004 32.0000000000000000   T   T   T
  2.1000000000000001 10.5000000000000000 34.0000000000000000   T   T   T
  0.0000000000000000 10.5000000000000000 36.0000000000000000   T   T   T
  0.0000000000000000  8.4000000000000004 38.0000000000000000   T   T   T
  4.2000000000000002  0.0000000000000000  8.0000000000000000   F   F   F
  6.3000000000000007  2.1000000000000001  8.0000000000000000   F   F   F
  6.3000000000000007  0.0000000000000000 10.0000000000000000   F   F   F
  4.2000000000000002  2.1000000000000001 10.0000000000000000   F   F   F
  4.2000000000000002  0.0000000000000000 12.0000000000000000   F   F   F
  6.3000000000000007  2.1000000000000001 12.0000000000000000   F   F   F
  6.3000000000000007  0.0000000000000000 14.0000000000000000   F   F   F
  4.2000000000000002  2.1000000000000001 14.0000000000000000   F   F   F
  6.3000000000000007  0.0000000000000000  8.0000000000000000   F   F   F
  6.3000000000000007  2.1000000000000001 10.0000000000000000   F   F   F
  4.2000000000000002  2.1000000000000001 12.0000000000000000   F   F   F
  4.2000000000000002  0.0000000000000000 14.0000000000000000   F   F   F
  4.2000000000000002  0.0000000000000000 16.0000000000000000   F   F   F
  6.3000000000000007  2.1000000000000001 16.0000000000000000   F   F   F
  6.3000000000000007  0.0000000000000000 18.0000000000000000   F   F   F
  4.2000000000000002  2.1000000000000001 18.0000000000000000   F   F   F
  4.2000000000000002  0.0000000000000000 20.0000000000000000   F   F   F
  6.3000000000000007  2.1000000000000001 20.0000000000000000   F   F   F
  6.3000000000000007  0.0000000000000000 22.0000000000000000   F   F   F
  4.2000000000000002  2.1000000000000001 22.0000000000000000   F   F   F
  6.3000000000000007  0.0000000000000000 16.0000000000000000   F   F   F
  6.3000000000000007  2.1000000000000001 18.0000000000000000   F   F   F
  4.2000000000000002  2.1000000000000001 20.0000000000000000   F   F   F
  4.2000000000000002  0.0000000000000000 22.0000000000000000   F   F   F
  4.2000000000000002  0.0000000000000000 24.0000000000000000   T   T   T
  6.3000000000000007  2.1000000000000001 24.0000000000000000   T   T   T
  6.3000000000000007  0.0000000000000000 26.0000000000000000   T   T   T
  4.2000000000000002  2.1000000000000001 26.0000000000000000   T   T   T
  4.2000000000000002  0.0000000000000000 28.0000000000000000   T   T   T
  6.3000000000000007  2.1000000000000001 28.0000000000000000   T   T   T
  6.3000000000000007  0.0000000000000000 30.0000000000000000   T   T   T
  4.2000000000000002  2.1000000000000001 30.0000000000000000   T   T   T
  6.3000000000000007  0.0000000000000000 24.0000000000000000   T   T   T
  6.3000000000000007  2.1000000000000001 26.0000000000000000   T   T   T
  4.2000000000000002  2.1000000000000001 28.0000000000000000   T   T   T
  4.2000000000000002  0.0000000000000000 30.0000000000000000   T   T   T
  4.2000000000000002  0.0000000000000000 32.0000000000000000   T   T   T
  6.3000000000000007  2.1000000000000001 32.0000000000000000   T   T   T
  6.3000000000000007  0.0000000000000000 34.0000000000000000   T   T   T
  4.2000000000000002  2.1000000000000001 34.0000000000000000   T   T   T
  4.2000000000000002  0.0000000000000000 36.0000000000000000   T   T   T
  6.3000000000000007  2.1000000000000001 36.0000000000000000   T   T   T
  6.3000000000000007  0.0000000000000000 38.0000000000000000   T   T   T
  4.2000000000000002  2.1000000000000001 38.0000000000000000   T   T   T
  6.3000000000000007  0.0000000000000000 32.0000000000000000   T   T   T
  6.3000000000000007  2.1000000000000001 34.0000000000000000   T   T   T
  4.2000000000000002  2.1000000000000001 36.0000000000000000   T   T   T
  4.2000000000000002  0.0000000000000000 38.0000000000000000   T   T   T
  4.2000000000000002  4.2000000000000002  8.0000000000000000   F   F   F
  6.3000000000000007  6.3000000000000007  8.0000000000000000   F   F   F
  6.3000000000000007  4.2000000000000002 10.0000000000000000   F   F   F
  4.2000000000000002  6.3000000000000007 10.0000000000000000   F   F   F
  4.2000000000000002  4.2000000000000002 12.0000000000000000   F   F   F
  6.3000000000000007  6.3000000000000007 12.0000000000000000   F   F   F
  6.3000000000000007  4.2000000000000002 14.0000000000000000   F   F   F
  4.2000000000000002  6.3000000000000007 14.0000000000000000   F   F   F
  6.3000000000000007  4.2000000000000002  8.0000000000000000   F   F   F
  6.3000000000000007  6.3000000000000007 10.0000000000000000   F   F   F
  4.2000000000000002  6.3000000000000007 12.0000000000000000   F   F   F
  4.2000000000000002  4.2000000000000002 14.0000000000000000   F   F   F
  4.2000000000000002  4.2000000000000002 16.0000000000000000   F   F   F
  6.3000000000000007  6.3000000000000007 16.0000000000000000   F   F   F
  6.3000000000000007  4.2000000000000002 18.0000000000000000   F   F   F
  4.2000000000000002  6.3000000000000007 18.0000000000000000   F   F   F
  4.2000000000000002  4.2000000000000002 20.0000000000000000   F   F   F
  6.3000000000000007  6.3000000000000007 20.0000000000000000   F   F   F
  6.3000000000000007  4.2000000000000002 22.0000000000000000   F   F   F
  4.2000000000000002  6.3000000000000007 22.0000000000000000   F   F   F
  6.3000000000000007  4.2000000000000002 16.0000000000000000   F   F   F
  6.3000000000000007  6.3000000000000007 18.0000000000000000   F   F   F
  4.2000000000000002  6.3000000000000007 20.0000000000000000   F   F   F
  4.2000000000000002  4.2000000000000002 22.0000000000000000   F   F   F
  4.2000000000000002  4.2000000000000002 24.0000000000000000   T   T   T
  6.3000000000000007  6.3000000000000007 24.0000000000000000   T   T   T
  6.3000000000000007  4.2000000000000002 26.0000000000000000   T   T   T
  4.2000000000000002  6.3000000000000007 26.0000000000000000   T   T   T
  4.2000000000000002  4.2000000000000002 28.0000000000000000   T   T   T
  6.3000000000000007  6.3000000000000007 28.0000000000000000   T   T   T
  6.3000000000000007  4.2000000000000002 30.0000000000000000   T   T   T
  4.2000000000000002  6.3000000000000007 30.0000000000000000   T   T   T
  6.3000000000000007  4.2000000000000002 24.0000000000000000   T   T   T
  6.3000000000000007  6.3000000000000007 26.0000000000000000   T   T   T
  4.2000000000000002  6.3000000000000007 28.0000000000000000   T   T   T
  4.2000000000000002  4.2000000000000002 30.0000000000000000   T   T   T
  4.2000000000000002  4.2000000000000002 32.0000000000000000   T   T   T
  6.3000000000000007  6.3000000000000007 32.0000000000000000   T   T   T
  6.3000000000000007  4.2000000000000002 34.0000000000000000   T   T   T
  4.2000000000000002  6.3000000000000007 34.0000000000000000   T   T   T
  4.2000000000000002  4.2000000000000002 36.0000000000000000   T   T   T
  6.3000000000000007  6.3000000000000007 36.0000000000000000   T   T   T
  6.3000000000000007  4.2000000000000002 38.0000000000000000   T   T   T
  4.2000000000000002  6.3000000000000007 38.0000000000000000   T   T   T
  6.3000000000000007  4.2000000000000002 32.0000000000000000   T   T   T
  6.3000000000000007  6.3000000000000007 34.0000000000000000   T   T   T
  4.2000000000000002  6.3000000000000007 36.0000000000000000   T   T   T
  4.2000000000000002  8.4000000000000004  8.0000000000000000   F   F   F
  6.3000000000000007 10.5000000000000000  8.0000000000000000   F   F   F
  6.3000000000000007  8.4000000000000004 10.0000000000000000   F   F   F
  4.2000000000000002 10.5000000000000000 10.0000000000000000   F   F   F
  4.2000000000000002  8.4000000000000004 12.0000000000000000   F   F   F
  6.3000000000000007 10.5000000000000000 12.0000000000000000   F   F   F
  6.3000000000000007  8.4000000000000004 14.0000000000000000   F   F   F
  4.2000000000000002 10.5000000000000000 14.0000000000000000   F   F   F
  6.3000000000000007  8.4000000000000004  8.0000000000000000   F   F   F
  6.3000000000000007 10.5000000000000000 10.0000000000000000   F   F   F
  4.2000000000000002 10.5000000000000000 12.0000000000000000   F   F   F
  4.2000000000000002  8.4000000000000004 14.0000000000000000   F   F   F
  4.2000000000000002  8.4000000000000004 16.0000000000000000   F   F   F
  6.3000000000000007 10.5000000000000000 16.0000000000000000   F   F   F
  6.3000000000000007  8.4000000000000004 18.0000000000000000   F   F   F
  4.2000000000000002 10.5000000000000000 18.0000000000000000   F   F   F
  4.2000000000000002  8.4000000000000004 20.0000000000000000   F   F   F
  6.3000000000000007 10.5000000000000000 20.0000000000000000   F   F   F
  6.3000000000000007  8.4000000000000004 22.0000000000000000   F   F   F
  4.2000000000000002 10.5000000000000000 22.0000000000000000   F   F   F
  6.3000000000000007  8.4000000000000004 16.0000000000000000   F   F   F
  6.3000000000000007 10.5000000000000000 18.0000000000000000   F   F   F
  4.2000000000000002 10.5000000000000000 20.0000000000000000   F   F   F
  4.2000000000000002  8.4000000000000004 22.0000000000000000   F   F   F
  4.2000000000000002  8.4000000000000004 24.0000000000000000   T   T   T
  6.3000000000000007 10.5000000000000000 24.0000000000000000   T   T   T
  6.3000000000000007  8.4000000000000004 26.0000000000000000   T   T   T
  4.2000000000000002 10.5000000000000000 26.0000000000000000   T   T   T
  4.2000000000000002  8.4000000000000004 28.0000000000000000   T   T   T
  6.3000000000000007 10.5000000000000000 28.0000000000000000   T   T   T
  6.3000000000000007  8.4000000000000004 30.0000000000000000   T   T   T
  4.2000000000000002 10.5000000000000000 30.0000000000000000   T   T   T
  6.3000000000000007  8.4000000000000004 24.0000000000000000   T   T   T
  6.3000000000000007 10.5000000000000000 26.0000000000000000   T   T   T
  4.2000000000000002 10.5000000000000000 28.0000000000000000   T   T   T
  4.2000000000000002  8.4000000000000004 30.0000000000000000   T   T   T
  4.2000000000000002  8.4000000000000004 32.0000000000000000   T   T   T
  6.3000000000000007 10.5000000000000000 32.0000000000000000   T   T   T
  6.3000000000000007  8.4000000000000004 34.0000000000000000   T   T   T
  4.2000000000000002 10.5000000000000000 34.0000000000000000   T   T   T
  4.2000000000000002  8.4000000000000004 36.0000000000000000   T   T   T
  6.3000000000000007 10.5000000000000000 36.0000000000000000   T   T   T
  6.3000000000000007  8.4000000000000004 38.0000000000000000   T   T   T
  4.2000000000000002 10.5000000000000000 38.0000000000000000   T   T   T
  6.3000000000000007  8.4000000000000004 32.0000000000000000   T   T   T
  6.3000000000000007 10.5000000000000000 34.0000000000000000   T   T   T
  4.2000000000000002 10.5000000000000000 36.0000000000000000   T   T   T
  4.2000000000000002  8.4000000000000004 38.0000000000000000   T   T   T
  8.4000000000000004  0.0000000000000000  8.0000000000000000   F   F   F
 10.5000000000000000  2.1000000000000001  8.0000000000000000   F   F   F
 10.5000000000000000  0.0000000000000000 10.0000000000000000   F   F   F
  8.4000000000000004  2.1000000000000001 10.0000000000000000   F   F   F
  8.4000000000000004  0.0000000000000000 12.0000000000000000   F   F   F
 10.5000000000000000  2.1000000000000001 12.0000000000000000   F   F   F
 10.5000000000000000  0.0000000000000000 14.0000000000000000   F   F   F
  8.4000000000000004  2.1000000000000001 14.0000000000000000   F   F   F
 10.5000000000000000  0.0000000000000000  8.0000000000000000   F   F   F
 10.5000000000000000  2.1000000000000001 10.0000000000000000   F   F   F
  8.4000000000000004  2.1000000000000001 12.0000000000000000   F   F   F
  8.4000000000000004  0.0000000000000000 14.0000000000000000   F   F   F
  8.4000000000000004  0.0000000000000000 16.0000000000000000   F   F   F
 10.5000000000000000  2.1000000000000001 16.0000000000000000   F   F   F
 10.5000000000000000  0.0000000000000000 18.0000000000000000   F   F   F
  8.4000000000000004  2.1000000000000001 18.0000000000000000   F   F   F
  8.4000000000000004  0.0000000000000000 20.0000000000000000   F   F   F
 10.5000000000000000  2.1000000000000001 20.0000000000000000   F   F   F
 10.5000000000000000  0.0000000000000000 22.0000000000000000   F   F   F
  8.4000000000000004  2.1000000000000001 22.0000000000000000   F   F   F
 10.5000000000000000  0.0000000000000000 16.0000000000000000   F   F   F
 10.5000000000000000  2.1000000000000001 18.0000000000000000   F   F   F
  8.4000000000000004  2.1000000000000001 20.0000000000000000   F   F   F
  8.4000000000000004  0.0000000000000000 22.0000000000000000   F   F   F
  8.4000000000000004  0.0000000000000000 24.0000000000000000   T   T   T
 10.5000000000000000  2.1000000000000001 24.0000000000000000   T   T   T
 10.5000000000000000  0.0000000000000000 26.0000000000000000   T   T   T
  8.4000000000000004  2.1000000000000001 26.0000000000000000   T   T   T
  8.4000000000000004  0.0000000000000000 28.0000000000000000   T   T   T
 10.5000000000000000  2.1000000000000001 28.0000000000000000   T   T   T
 10.5000000000000000  0.0000000000000000 30.0000000000000000   T   T   T
  8.4000000000000004  2.1000000000000001 30.0000000000000000   T   T   T
 10.5000000000000000  0.0000000000000000 24.0000000000000000   T   T   T
 10.5000000000000000  2.1000000000000001 26.0000000000000000   T   T   T
  8.4000000000000004  2.1000000000000001 28.0000000000000000   T   T   T
  8.4000000000000004  0.0000000000000000 30.0000000000000000   T   T   T
  8.4000000000000004  0.0000000000000000 32.0000000000000000   T   T   T
 10.5000000000000000  2.1000000000000001 32.0000000000000000   T   T   T
 10.5000000000000000  0.0000000000000000 34.0000000000000000   T   T   T
  8.4000000000000004  2.1000000000000001 34.0000000000000000   T   T   T
  8.4000000000000004  0.0000000000000000 36.0000000000000000   T   T   T
 10.5000000000000000  2.1000000000000001 36.0000000000000000   T   T   T
 10.5000000000000000  0.0000000000000000 38.0000000000000000   T   T   T
  8.4000000000000004  2.1000000000000001 38.0000000000000000   T   T   T
 10.5000000000000000  0.0000000000000000 32.0000000000000000   T   T   T
 10.5000000000000000  2.1000000000000001 34.0000000000000000   T   T   T
  8.4000000000000004  2.1000000000000001 36.0000000000000000   T   T   T
  8.4000000000000004  0.0000000000000000 38.0000000000000000   T   T   T
  8.4000000000000004  4.2000000000000002  8.0000000000000000   F   F   F
 10.5000000000000000  6.3000000000000007  8.0000000000000000   F   F   F
 10.5000000000000000  4.2000000000000002 10.0000000000000000   F   F   F
  8.4000000000000004  6.3000000000000007 10.0000000000000000   F   F   F
  8.4000000000000004  4.2000000000000002 12.0000000000000000   F   F   F
 10.5000000000000000  6.3000000000000007 12.0000000000000000   F   F   F
 10.5000000000000000  4.2000000000000002 14.0000000000000000   F   F   F
  8.4000000000000004  6.3000000000000007 14.0000000000000000   F   F   F
 10.5000000000000000  4.2000000000000002  8.0000000000000000   F   F   F
 10.5000000000000000  6.3000000000000007 10.0000000000000000   F   F   F
  8.4000000000000004  6.3000000000000007 12.0000000000000000   F   F   F
  8.4000000000000004  4.2000000000000002 14.0000000000000000   F   F   F
  8.4000000000000004  4.2000000000000002 16.0000000000000000   F   F   F
 10.5000000000000000  6.3000000000000007 16.0000000000000000   F   F   F
 10.5000000000000000  4.2000000000000002 18.0000000000000000   F   F   F
  8.4000000000000004  6.3000000000000007 18.0000000000000000   F   F   F
  8.4000000000000004  4.2000000000000002 20.0000000000000000   F   F   F
 10.5000000000000000  6.3000000000000007 20.0000000000000000   F   F   F
 10.5000000000000000  4.2000000000000002 22.0000000000000000   F   F   F
  8.4000000000000004  6.3000000000000007 22.0000000000000000   F   F   F
 10.5000000000000000  4.2000000000000002 16.0000000000000000   F   F   F
 10.5000000000000000  6.3000000000000007 18.0000000000000000   F   F   F
  8.4000000000000004  6.3000000000000007 20.0000000000000000   F   F   F
  8.4000000000000004  4.2000000000000002 22.0000000000000000   F   F   F
  8.4000000000000004  4.2000000000000002 24.0000000000000000   T   T   T
 10.5000000000000000  6.3000000000000007 24.0000000000000000   T   T   T
 10.5000000000000000  4.2000000000000002 26.0000000000000000   T   T   T
  8.4000000000000004  6.3000000000000007 26.0000000000000000   T   T   T
  8.4000000000000004  4.2000000000000002 28.0000000000000000   T   T   T
 10.5000000000000000  6.3000000000000007 28.0000000000000000   T   T   T
 10.5000000000000000  4.2000000000000002 30.0000000000000000   T   T   T
  8.4000000000000004  6.3000000000000007 30.0000000000000000   T   T   T
 10.5000000000000000  4.2000000000000002 24.0000000000000000   T   T   T
 10.5000000000000000  6.3000000000000007 26.0000000000000000   T   T   T
  8.4000000000000004  6.3000000000000007 28.0000000000000000   T   T   T
  8.4000000000000004  4.2000000000000002 30.0000000000000000   T   T   T
  8.4000000000000004  4.2000000000000002 32.0000000000000000   T   T   T
 10.5000000000000000  6.3000000000000007 32.0000000000000000   T   T   T
 10.5000000000000000  4.2000000000000002 34.0000000000000000   T   T   T
  8.4000000000000004  6.3000000000000007 34.0000000000000000   T   T   T
  8.4000000000000004  4.2000000000000002 36.0000000000000000   T   T   T
 10.5000000000000000  6.3000000000000007 36.0000000000000000   T   T   T
 10.5000000000000000  4.2000000000000002 38.0000000000000000   T   T   T
  8.4000000000000004  6.3000000000000007 38.0000000000000000   T   T   T
 10.5000000000000000  4.2000000000000002 32.0000000000000000   T   T   T
 10.5000000000000000  6.3000000000000007 34.0000000000000000   T   T   T
  8.4000000000000004  6.3000000000000007 36.0000000000000000   T   T   T
  8.4000000000000004  4.2000000000000002 38.0000000000000000   T   T   T
  8.4000000000000004  8.4000000000000004  8.0000000000000000   F   F   F
 10.5000000000000000 10.5000000000000000  8.0000000000000000   F   F   F
 10.5000000000000000  8.4000000000000004 10.0000000000000000   F   F   F
  8.4000000000000004 10.5000000000000000 10.0000000000000000   F   F   F
  8.4000000000000004  8.4000000000000004 12.0000000000000000   F   F   F
 10.5000000000000000 10.5000000000000000 12.0000000000000000   F   F   F
 10.5000000000000000  8.4000000000000004 14.0000000000000000   F   F   F
  8.4000000000000004 10.5000000000000000 14.0000000000000000   F   F   F
 10.5000000000000000  8.4000000000000004  8.0000000000000000   F   F   F
 10.5000000000000000 10.5000000000000000 10.0000000000000000   F   F   F
  8.4000000000000004 10.5000000000000000 12.0000000000000000   F   F   F
  8.4000000000000004  8.4000000000000004 14.0000000000000000   F   F   F
  8.4000000000000004  8.4000000000000004 16.0000000000000000   F   F   F
 10.5000000000000000 10.5000000000000000 16.0000000000000000   F   F   F
 10.5000000000000000  8.4000000000000004 18.0000000000000000   F   F   F
  8.4000000000000004 10.5000000000000000 18.0000000000000000   F   F   F
  8.4000000000000004  8.4000000000000004 20.0000000000000000   F   F   F
 10.5000000000000000 10.5000000000000000 20.0000000000000000   F   F   F
 10.5000000000000000  8.4000000000000004 22.0000000000000000   F   F   F
  8.4000000000000004 10.5000000000000000 22.0000000000000000   F   F   F
 10.5000000000000000  8.4000000000000004 16.0000000000000000   F   F   F
 10.5000000000000000 10.5000000000000000 18.0000000000000000   F   F   F
  8.4000000000000004 10.5000000000000000 20.0000000000000000   F   F   F
  8.4000000000000004  8.4000000000000004 22.0000000000000000   F   F   F
  8.4000000000000004  8.4000000000000004 24.0000000000000000   T   T   T
 10.5000000000000000 10.5000000000000000 24.0000000000000000   T   T   T
 10.5000000000000000  8.4000000000000004 26.0000000000000000   T   T   T
  8.4000000000000004 10.5000000000000000 26.0000000000000000   T   T   T
  8.4000000000000004  8.4000000000000004 28.0000000000000000   T   T   T
 10.5000000000000000 10.5000000000000000 28.0000000000000000   T   T   T
 10.5000000000000000  8.4000000000000004 30.0000000000000000   T   T   T
  8.4000000000000004 10.5000000000000000 30.0000000000000000   T   T   T
 10.5000000000000000  8.4000000000000004 24.0000000000000000   T   T   T
 10.5000000000000000 10.5000000000000000 26.0000000000000000   T   T   T
  8.4000000000000004 10.5000000000000000 28.0000000000000000   T   T   T
  8.4000000000000004  8.4000000000000004 30.0000000000000000   T   T   T
  8.4000000000000004  8.4000000000000004 32.0000000000000000   T   T   T
 10.5000000000000000 10.5000000000000000 32.0000000000000000   T   T   T
 10.5000000000000000  8.4000000000000004 34.0000000000000000   T   T   T
  8.4000000000000004 10.5000000000000000 34.0000000000000000   T   T   T
  8.4000000000000004  8.4000000000000004 36.0000000000000000   T   T   T
 10.5000000000000000 10.5000000000000000 36.0000000000000000   T   T   T
 10.5000000000000000  8.4000000000000004 38.0000000000000000   T   T   T
  8.4000000000000004 10.5000000000000000 38.0000000000000000   T   T   T
 10.5000000000000000  8.4000000000000004 32.0000000000000000   T   T   T
 10.5000000000000000 10.5000000000000000 34.0000000000000000   T   T   T
  8.4000000000000004 10.5000000000000000 36.0000000000000000   T   T   T
  8.4000000000000004  8.4000000000000004 38.0000000000000000   T   T   T
