Ti Ni C  O 
 1.0000000000000000
    10.5600000000000005    0.0000000000000000    0.0000000000000006
     5.2800000000000011   12.3199999999999985    0.0000000000000008
     0.0000000000000000    0.0000000000000000   43.0400000000000063
 Ti  Ni  C   O  
  48 168  32  32
Selective dynamics
Cartesian
  4.4000000000000012  1.5399999999999994 30.7800000000000011   T   T   T
  7.0400000000000009  3.0799999999999992 30.7800000000000011   T   T   T
  9.6800000000000033  4.6199999999999983 30.7800000000000011   T   T   T
  9.6800000000000015  1.5400000000000005 30.7800000000000011   T   T   T
  1.7600000000000005  3.0799999999999996 30.7800000000000011   T   T   T
  4.4000000000000012  4.6200000000000001 30.7800000000000011   T   T   T
  7.0400000000000000  6.1599999999999993 30.7800000000000011   T   T   T
  9.6800000000000033  7.6999999999999993 30.7800000000000011   T   T   T
 12.3200000000000038  9.2399999999999984 30.7800000000000011   T   T   T
 12.3200000000000003  6.1599999999999984 30.7800000000000011   T   T   T
  4.4000000000000004  7.6999999999999993 30.7800000000000011   T   T   T
  7.0400000000000027  9.2400000000000020 30.7800000000000011   T   T   T
  9.6800000000000033 10.7799999999999994 30.7800000000000011   T   T   T
  7.0400000000000000  0.0000000000000003 30.7800000000000011   T   T   T
 14.9600000000000026 10.7799999999999994 30.7800000000000011   T   T   T
  1.7600000000000007  0.0000000000000000 30.7800000000000011   T   T   T
  6.1600000000000019  1.5399999999999994 28.7800000000000011   T   T   T
  8.8000000000000025  3.0799999999999987 28.7800000000000011   T   T   T
 11.4400000000000013  4.6200000000000010 28.7800000000000011   T   T   T
  0.8800000000000002  1.5399999999999998 28.7800000000000011   T   T   T
  3.5200000000000005  3.0799999999999996 28.7800000000000011   T   T   T
  6.1600000000000019  4.6199999999999992 28.7800000000000011   T   T   T
  8.8000000000000007  6.1599999999999993 28.7800000000000011   T   T   T
 11.4400000000000031  7.6999999999999993 28.7800000000000011   T   T   T
 14.0800000000000036  9.2400000000000020 28.7800000000000011   T   T   T
  3.5200000000000009  6.1599999999999993 28.7800000000000011   T   T   T
  6.1600000000000019  7.7000000000000002 28.7800000000000011   T   T   T
  8.8000000000000025  9.2400000000000002 28.7800000000000011   T   T   T
 11.4400000000000013 10.7800000000000011 28.7800000000000011   T   T   T
  8.8000000000000007  0.0000000000000000 28.7800000000000011   T   T   T
  6.1600000000000019 10.7799999999999994 28.7800000000000011   T   T   T
  3.5200000000000005  0.0000000000000000 28.7800000000000011   T   T   T
  5.2800000000000002  0.0000000000000000 26.7799999999999976   T   T   T
  7.9200000000000017  1.5399999999999998 26.7799999999999976   T   T   T
 10.5600000000000023  3.0799999999999987 26.7799999999999976   T   T   T
  0.0000000000000000  0.0000000000000000 26.7799999999999976   T   T   T
  2.6400000000000001  1.5399999999999998 26.7799999999999976   T   T   T
  5.2800000000000002  3.0799999999999996 26.7799999999999976   T   T   T
  7.9200000000000008  4.6200000000000010 26.7799999999999976   T   T   T
 10.5600000000000005  6.1599999999999993 26.7799999999999976   T   T   T
 13.2000000000000011  7.6999999999999993 26.7799999999999976   T   T   T
  2.6400000000000006  4.6200000000000001 26.7799999999999976   T   T   T
  5.2800000000000011  6.1599999999999993 26.7799999999999976   T   T   T
  7.9200000000000017  7.6999999999999993 26.7799999999999976   T   T   T
 10.5600000000000023  9.2399999999999984 26.7799999999999976   T   T   T
 13.2000000000000011 10.7799999999999994 26.7799999999999976   T   T   T
  5.2800000000000011  9.2400000000000002 26.7799999999999976   T   T   T
  7.9200000000000017 10.7799999999999994 26.7799999999999976   T   T   T
  7.0400000000000000  0.0000000000000000 21.8200000000000074   T   T   T
  8.8000000000000007  1.7600000000000000 21.8200000000000074   T   T   T
 10.5600000000000041  3.5199999999999996 21.8200000000000074   T   T   T
 12.3200000000000021  5.2799999999999985 21.8200000000000074   T   T   T
  3.5200000000000000  0.0000000000000000 21.8200000000000074   T   T   T
  5.2800000000000020  1.7599999999999998 21.8200000000000074   T   T   T
  7.0400000000000000  3.5199999999999996 21.8200000000000074   T   T   T
  8.8000000000000007  5.2799999999999985 21.8200000000000074   T   T   T
 10.5599999999999987  7.0399999999999991 21.8200000000000074   T   T   T
 12.3200000000000021  8.7999999999999972 21.8200000000000074   T   T   T
 14.0800000000000018 10.5599999999999969 21.8200000000000074   T   T   T
  0.0000000000000000  0.0000000000000000 21.8200000000000074   T   T   T
  1.7600000000000002  1.7599999999999998 21.8200000000000074   T   T   T
  3.5200000000000005  3.5199999999999996 21.8200000000000074   T   T   T
  5.2799999999999994  5.2799999999999985 21.8200000000000074   T   T   T
  7.0400000000000009  7.0399999999999991 21.8200000000000074   T   T   T
  8.8000000000000007  8.7999999999999972 21.8200000000000074   T   T   T
 10.5599999999999987 10.5599999999999969 21.8200000000000074   T   T   T
  3.5200000000000005  7.0399999999999991 21.8200000000000074   T   T   T
  5.2800000000000002  8.7999999999999972 21.8200000000000074   T   T   T
  7.0400000000000009 10.5599999999999969 21.8200000000000074   T   T   T
  7.0400000000000000  1.7599999999999998 23.5800000000000054   T   T   T
  8.8000000000000007  3.5199999999999996 23.5800000000000054   T   T   T
 10.5600000000000041  5.2799999999999985 23.5800000000000054   T   T   T
 12.3200000000000021  7.0399999999999991 23.5800000000000054   T   T   T
  3.5200000000000000  1.7599999999999998 23.5800000000000054   T   T   T
  5.2800000000000011  3.5199999999999996 23.5800000000000054   T   T   T
  7.0400000000000009  5.2799999999999985 23.5800000000000054   T   T   T
  8.8000000000000007  7.0399999999999991 23.5800000000000054   T   T   T
 10.5600000000000005  8.7999999999999989 23.5800000000000054   T   T   T
 12.3200000000000021 10.5599999999999969 23.5800000000000054   T   T   T
 14.0799999999999983 12.3199999999999967 23.5800000000000054   T   T   T
 10.5600000000000005  1.7600000000000000 23.5800000000000054   T   T   T
  1.7600000000000002  3.5199999999999996 23.5800000000000054   T   T   T
  3.5200000000000005  5.2799999999999994 23.5800000000000054   T   T   T
  5.2800000000000002  7.0399999999999991 23.5800000000000054   T   T   T
  7.0400000000000009  8.7999999999999989 23.5800000000000054   T   T   T
  8.8000000000000007 10.5599999999999969 23.5800000000000054   T   T   T
 10.5599999999999987 12.3199999999999967 23.5800000000000054   T   T   T
 14.0800000000000018  8.7999999999999989 23.5800000000000054   T   T   T
  5.2800000000000002 10.5599999999999969 23.5800000000000054   T   T   T
  7.0400000000000009 12.3199999999999967 23.5800000000000054   T   T   T
  7.0400000000000000  0.0000000000000000 18.3000000000000007   T   T   T
  8.8000000000000007  1.7600000000000000 18.3000000000000007   T   T   T
 10.5600000000000041  3.5199999999999996 18.3000000000000007   T   T   T
 12.3200000000000021  5.2799999999999985 18.3000000000000007   T   T   T
  3.5200000000000000  0.0000000000000000 18.3000000000000007   T   T   T
  5.2800000000000020  1.7599999999999998 18.3000000000000007   T   T   T
  7.0400000000000000  3.5199999999999996 18.3000000000000007   T   T   T
  8.8000000000000007  5.2799999999999985 18.3000000000000007   T   T   T
 10.5599999999999987  7.0399999999999991 18.3000000000000007   T   T   T
 12.3200000000000021  8.7999999999999972 18.3000000000000007   T   T   T
 14.0800000000000018 10.5599999999999969 18.3000000000000007   T   T   T
  0.0000000000000000  0.0000000000000000 18.3000000000000007   T   T   T
  1.7600000000000002  1.7599999999999998 18.3000000000000007   T   T   T
  3.5200000000000005  3.5199999999999996 18.3000000000000007   T   T   T
  5.2799999999999994  5.2799999999999985 18.3000000000000007   T   T   T
  7.0400000000000009  7.0399999999999991 18.3000000000000007   T   T   T
  8.8000000000000007  8.7999999999999972 18.3000000000000007   T   T   T
 10.5599999999999987 10.5599999999999969 18.3000000000000007   T   T   T
  3.5200000000000005  7.0399999999999991 18.3000000000000007   T   T   T
  5.2800000000000002  8.7999999999999972 18.3000000000000007   T   T   T
  7.0400000000000009 10.5599999999999969 18.3000000000000007   T   T   T
  7.0400000000000000  1.7599999999999998 20.0600000000000058   T   T   T
  8.8000000000000007  3.5199999999999996 20.0600000000000058   T   T   T
 10.5600000000000041  5.2799999999999985 20.0600000000000058   T   T   T
 12.3200000000000021  7.0399999999999991 20.0600000000000058   T   T   T
  3.5200000000000000  1.7599999999999998 20.0600000000000058   T   T   T
  5.2800000000000011  3.5199999999999996 20.0600000000000058   T   T   T
  7.0400000000000009  5.2799999999999985 20.0600000000000058   T   T   T
  8.8000000000000007  7.0399999999999991 20.0600000000000058   T   T   T
 10.5600000000000005  8.7999999999999989 20.0600000000000058   T   T   T
 12.3200000000000021 10.5599999999999969 20.0600000000000058   T   T   T
 14.0799999999999983 12.3199999999999967 20.0600000000000058   T   T   T
 10.5600000000000005  1.7600000000000000 20.0600000000000058   T   T   T
  1.7600000000000002  3.5199999999999996 20.0600000000000058   T   T   T
  3.5200000000000005  5.2799999999999994 20.0600000000000058   T   T   T
  5.2800000000000002  7.0399999999999991 20.0600000000000058   T   T   T
  7.0400000000000009  8.7999999999999989 20.0600000000000058   T   T   T
  8.8000000000000007 10.5599999999999969 20.0600000000000058   T   T   T
 10.5599999999999987 12.3199999999999967 20.0600000000000058   T   T   T
 14.0800000000000018  8.7999999999999989 20.0600000000000058   T   T   T
  5.2800000000000002 10.5599999999999969 20.0600000000000058   T   T   T
  7.0400000000000009 12.3199999999999967 20.0600000000000058   T   T   T
  7.0400000000000000  0.0000000000000000 14.7800000000000011   F   F   F
  8.8000000000000007  1.7600000000000000 14.7800000000000011   F   F   F
 10.5600000000000041  3.5199999999999996 14.7800000000000011   F   F   F
 12.3200000000000021  5.2799999999999985 14.7800000000000011   F   F   F
  3.5200000000000000  0.0000000000000000 14.7800000000000011   F   F   F
  5.2800000000000020  1.7599999999999998 14.7800000000000011   F   F   F
  7.0400000000000000  3.5199999999999996 14.7800000000000011   F   F   F
  8.8000000000000007  5.2799999999999985 14.7800000000000011   F   F   F
 10.5599999999999987  7.0399999999999991 14.7800000000000011   F   F   F
 12.3200000000000021  8.7999999999999972 14.7800000000000011   F   F   F
 14.0800000000000018 10.5599999999999969 14.7800000000000011   F   F   F
  0.0000000000000000  0.0000000000000000 14.7800000000000011   F   F   F
  1.7600000000000002  1.7599999999999998 14.7800000000000011   F   F   F
  3.5200000000000005  3.5199999999999996 14.7800000000000011   F   F   F
  5.2799999999999994  5.2799999999999985 14.7800000000000011   F   F   F
  7.0400000000000009  7.0399999999999991 14.7800000000000011   F   F   F
  8.8000000000000007  8.7999999999999972 14.7800000000000011   F   F   F
 10.5599999999999987 10.5599999999999969 14.7800000000000011   F   F   F
  3.5200000000000005  7.0399999999999991 14.7800000000000011   F   F   F
  5.2800000000000002  8.7999999999999972 14.7800000000000011   F   F   F
  7.0400000000000009 10.5599999999999969 14.7800000000000011   F   F   F
  7.0400000000000000  1.7599999999999998 16.5400000000000063   F   F   F
  8.8000000000000007  3.5199999999999996 16.5400000000000063   F   F   F
 10.5600000000000041  5.2799999999999985 16.5400000000000063   F   F   F
 12.3200000000000021  7.0399999999999991 16.5400000000000063   F   F   F
  3.5200000000000000  1.7599999999999998 16.5400000000000063   F   F   F
  5.2800000000000011  3.5199999999999996 16.5400000000000063   F   F   F
  7.0400000000000009  5.2799999999999985 16.5400000000000063   F   F   F
  8.8000000000000007  7.0399999999999991 16.5400000000000063   F   F   F
 10.5600000000000005  8.7999999999999989 16.5400000000000063   F   F   F
 12.3200000000000021 10.5599999999999969 16.5400000000000063   F   F   F
 14.0799999999999983 12.3199999999999967 16.5400000000000063   F   F   F
 10.5600000000000005  1.7600000000000000 16.5400000000000063   F   F   F
  1.7600000000000002  3.5199999999999996 16.5400000000000063   F   F   F
  3.5200000000000005  5.2799999999999994 16.5400000000000063   F   F   F
  5.2800000000000002  7.0399999999999991 16.5400000000000063   F   F   F
  7.0400000000000009  8.7999999999999989 16.5400000000000063   F   F   F
  8.8000000000000007 10.5599999999999969 16.5400000000000063   F   F   F
 10.5599999999999987 12.3199999999999967 16.5400000000000063   F   F   F
 14.0800000000000018  8.7999999999999989 16.5400000000000063   F   F   F
  5.2800000000000002 10.5599999999999969 16.5400000000000063   F   F   F
  7.0400000000000009 12.3199999999999967 16.5400000000000063   F   F   F
  7.0400000000000000  0.0000000000000000 11.2600000000000016   F   F   F
  8.8000000000000007  1.7600000000000000 11.2600000000000016   F   F   F
 10.5600000000000041  3.5199999999999996 11.2600000000000016   F   F   F
 12.3200000000000021  5.2799999999999985 11.2600000000000051   F   F   F
  3.5200000000000000  0.0000000000000000 11.2600000000000016   F   F   F
  5.2800000000000020  1.7599999999999998 11.2600000000000016   F   F   F
  7.0400000000000000  3.5199999999999996 11.2600000000000016   F   F   F
  8.8000000000000007  5.2799999999999985 11.2600000000000016   F   F   F
 10.5599999999999987  7.0399999999999991 11.2600000000000051   F   F   F
 12.3200000000000021  8.7999999999999972 11.2600000000000051   F   F   F
 14.0800000000000018 10.5599999999999969 11.2600000000000051   F   F   F
  0.0000000000000000  0.0000000000000000 11.2600000000000016   F   F   F
  1.7600000000000002  1.7599999999999998 11.2600000000000016   F   F   F
  3.5200000000000005  3.5199999999999996 11.2600000000000016   F   F   F
  5.2799999999999994  5.2799999999999985 11.2600000000000016   F   F   F
  7.0400000000000009  7.0399999999999991 11.2600000000000016   F   F   F
  8.8000000000000007  8.7999999999999972 11.2600000000000051   F   F   F
 10.5599999999999987 10.5599999999999969 11.2600000000000051   F   F   F
  3.5200000000000005  7.0399999999999991 11.2600000000000016   F   F   F
  5.2800000000000002  8.7999999999999972 11.2600000000000016   F   F   F
  7.0400000000000009 10.5599999999999969 11.2600000000000016   F   F   F
  7.0400000000000000  1.7599999999999998 13.0199999999999996   F   F   F
  8.8000000000000007  3.5199999999999996 13.0199999999999996   F   F   F
 10.5600000000000041  5.2799999999999985 13.0199999999999996   F   F   F
 12.3200000000000021  7.0399999999999991 13.0199999999999996   F   F   F
  3.5200000000000000  1.7599999999999998 13.0199999999999996   F   F   F
  5.2800000000000011  3.5199999999999996 13.0199999999999996   F   F   F
  7.0400000000000009  5.2799999999999985 13.0199999999999996   F   F   F
  8.8000000000000007  7.0399999999999991 13.0199999999999996   F   F   F
 10.5600000000000005  8.7999999999999989 13.0199999999999996   F   F   F
 12.3200000000000021 10.5599999999999969 13.0199999999999996   F   F   F
 14.0799999999999983 12.3199999999999967 13.0199999999999996   F   F   F
 10.5600000000000005  1.7600000000000000 13.0199999999999996   F   F   F
  1.7600000000000002  3.5199999999999996 13.0199999999999996   F   F   F
  3.5200000000000005  5.2799999999999994 13.0199999999999996   F   F   F
  5.2800000000000002  7.0399999999999991 13.0199999999999996   F   F   F
  7.0400000000000009  8.7999999999999989 13.0199999999999996   F   F   F
  8.8000000000000007 10.5599999999999969 13.0199999999999996   F   F   F
 10.5599999999999987 12.3199999999999967 13.0199999999999996   F   F   F
 14.0800000000000018  8.7999999999999989 13.0199999999999996   F   F   F
  5.2800000000000002 10.5599999999999969 13.0199999999999996   F   F   F
  7.0400000000000009 12.3199999999999967 13.0199999999999996   F   F   F
  5.2800000000000002  0.0000000000000000 29.7800000000000011   T   T   T
  7.9200000000000017  1.5399999999999998 29.7800000000000011   T   T   T
 10.5600000000000023  3.0799999999999987 29.7800000000000011   T   T   T
  0.0000000000000000  0.0000000000000000 29.7800000000000011   T   T   T
  2.6400000000000001  1.5399999999999998 29.7800000000000011   T   T   T
  5.2800000000000002  3.0799999999999996 29.7800000000000011   T   T   T
  7.9200000000000008  4.6200000000000010 29.7800000000000011   T   T   T
 10.5600000000000005  6.1599999999999993 29.7800000000000011   T   T   T
 13.2000000000000011  7.6999999999999993 29.7800000000000011   T   T   T
  2.6400000000000006  4.6200000000000001 29.7800000000000011   T   T   T
  5.2800000000000011  6.1599999999999993 29.7800000000000011   T   T   T
  7.9200000000000017  7.6999999999999993 29.7800000000000011   T   T   T
 10.5600000000000023  9.2399999999999984 29.7800000000000011   T   T   T
 13.2000000000000011 10.7799999999999994 29.7800000000000011   T   T   T
  5.2800000000000011  9.2400000000000002 29.7800000000000011   T   T   T
  7.9200000000000017 10.7799999999999994 29.7800000000000011   T   T   T
  4.4000000000000012  1.5399999999999994 27.7799999999999976   T   T   T
  7.0400000000000009  3.0799999999999992 27.7799999999999976   T   T   T
  9.6800000000000033  4.6199999999999983 27.7799999999999976   T   T   T
  9.6800000000000015  1.5400000000000005 27.7799999999999976   T   T   T
  1.7600000000000005  3.0799999999999996 27.7799999999999976   T   T   T
  4.4000000000000012  4.6200000000000001 27.7799999999999976   T   T   T
  7.0400000000000000  6.1599999999999993 27.7799999999999976   T   T   T
  9.6800000000000033  7.6999999999999993 27.7799999999999976   T   T   T
 12.3200000000000038  9.2399999999999984 27.7799999999999976   T   T   T
 12.3200000000000003  6.1599999999999984 27.7799999999999976   T   T   T
  4.4000000000000004  7.6999999999999993 27.7799999999999976   T   T   T
  7.0400000000000027  9.2400000000000020 27.7799999999999976   T   T   T
  9.6800000000000033 10.7799999999999994 27.7799999999999976   T   T   T
  7.0400000000000000  0.0000000000000003 27.7799999999999976   T   T   T
 14.9600000000000026 10.7799999999999994 27.7799999999999976   T   T   T
  1.7600000000000007  0.0000000000000000 27.7799999999999976   T   T   T
  6.1600000000000019  1.5399999999999994 31.7800000000000047   T   T   T
  8.8000000000000025  3.0799999999999987 31.7800000000000047   T   T   T
 11.4400000000000013  4.6200000000000010 31.7800000000000047   T   T   T
  0.8800000000000002  1.5399999999999998 31.7800000000000047   T   T   T
  3.5200000000000005  3.0799999999999996 31.7800000000000047   T   T   T
  6.1600000000000019  4.6199999999999992 31.7800000000000047   T   T   T
  8.8000000000000007  6.1599999999999993 31.7800000000000047   T   T   T
 11.4400000000000031  7.6999999999999993 31.7800000000000047   T   T   T
 14.0800000000000036  9.2400000000000020 31.7800000000000047   T   T   T
  3.5200000000000009  6.1599999999999993 31.7800000000000047   T   T   T
  6.1600000000000019  7.7000000000000002 31.7800000000000047   T   T   T
  8.8000000000000025  9.2400000000000002 31.7800000000000047   T   T   T
 11.4400000000000013 10.7800000000000011 31.7800000000000047   T   T   T
  8.8000000000000007  0.0000000000000000 31.7800000000000047   T   T   T
  6.1600000000000019 10.7799999999999994 31.7800000000000047   T   T   T
  3.5200000000000005  0.0000000000000000 31.7800000000000047   T   T   T
  6.1600000000000019  1.5399999999999994 25.7800000000000011   T   T   T
  8.8000000000000025  3.0799999999999987 25.7800000000000011   T   T   T
 11.4400000000000013  4.6200000000000010 25.7800000000000011   T   T   T
  0.8800000000000002  1.5399999999999998 25.7800000000000011   T   T   T
  3.5200000000000005  3.0799999999999996 25.7800000000000011   T   T   T
  6.1600000000000019  4.6199999999999992 25.7800000000000011   T   T   T
  8.8000000000000007  6.1599999999999993 25.7800000000000011   T   T   T
 11.4400000000000031  7.6999999999999993 25.7800000000000011   T   T   T
 14.0800000000000036  9.2400000000000020 25.7800000000000011   T   T   T
  3.5200000000000009  6.1599999999999993 25.7800000000000011   T   T   T
  6.1600000000000019  7.7000000000000002 25.7800000000000011   T   T   T
  8.8000000000000025  9.2400000000000002 25.7800000000000011   T   T   T
 11.4400000000000013 10.7800000000000011 25.7800000000000011   T   T   T
  8.8000000000000007  0.0000000000000000 25.7800000000000011   T   T   T
  6.1600000000000019 10.7799999999999994 25.7800000000000011   T   T   T
  3.5200000000000005  0.0000000000000000 25.7800000000000011   T   T   T
