Mo N  Mo N  Mo N  Mo N  Mo N  Mo N  Mo N  Ru Mo N 
 1.0000000000000000
     8.5112000000000005    0.0000000000000000    0.0000000000000005
     0.0000000000000026   15.9003999999999994    0.0000000000000010
     0.0000000000000000    0.0000000000000000   26.3834000000000017
 Mo  N   Mo  N   Mo  N   Mo  N   Mo  N   Mo  N   Mo  N   Ru  Mo  N  
   8   4   8   4   8   4   8   4   8   4   8   4   8   4   1   7   4
Selective dynamics
Cartesian
  0.0000000000000000  0.0000000000000000 12.1278000000000024   F   F   F
  2.1278000000000001  0.0000000000000000 10.0000000000000018   F   F   F
  0.0000000000000010  5.9626500000000000 10.0000000000000018   F   F   F
  2.1278000000000010  5.9626500000000000 12.1278000000000024   F   F   F
  0.0000000000000006  3.9750999999999999 12.1278000000000024   F   F   F
  2.1278000000000006  3.9750999999999999 10.0000000000000018   F   F   F
  0.0000000000000003  1.9875499999999999 10.0000000000000018   F   F   F
  2.1278000000000006  1.9875499999999999 12.1278000000000024   F   F   F
  0.0000000000000000  0.0000000000000000 10.0000000000000018   F   F   F
  2.1278000000000010  5.9626500000000000 10.0000000000000018   F   F   F
  2.1278000000000006  3.9750999999999999 12.1278000000000024   F   F   F
  0.0000000000000003  1.9875499999999999 12.1278000000000024   F   F   F
  0.0000000000000000  0.0000000000000000 16.3834000000000017   T   T   T
  2.1278000000000001  0.0000000000000000 14.2556000000000012   T   T   T
  0.0000000000000010  5.9626500000000000 14.2556000000000012   T   T   T
  2.1278000000000010  5.9626500000000000 16.3834000000000017   T   T   T
  0.0000000000000006  3.9750999999999999 16.3834000000000017   T   T   T
  2.1278000000000006  3.9750999999999999 14.2556000000000012   T   T   T
  0.0000000000000003  1.9875499999999999 14.2556000000000012   T   T   T
  2.1278000000000006  1.9875499999999999 16.3834000000000017   T   T   T
  0.0000000000000000  0.0000000000000000 14.2556000000000012   T   T   T
  2.1278000000000010  5.9626500000000000 14.2556000000000012   T   T   T
  2.1278000000000006  3.9750999999999999 16.3834000000000017   T   T   T
  0.0000000000000003  1.9875499999999999 16.3834000000000017   T   T   T
  0.0000000000000013  7.9501999999999997 12.1278000000000024   F   F   F
  2.1278000000000015  7.9501999999999997 10.0000000000000018   F   F   F
  0.0000000000000022 13.9128499999999988 10.0000000000000018   F   F   F
  2.1278000000000024 13.9128499999999988 12.1278000000000024   F   F   F
  0.0000000000000019 11.9253000000000000 12.1278000000000024   F   F   F
  2.1278000000000019 11.9253000000000000 10.0000000000000018   F   F   F
  0.0000000000000016  9.9377499999999994 10.0000000000000018   F   F   F
  2.1278000000000019  9.9377499999999994 12.1278000000000024   F   F   F
  0.0000000000000013  7.9501999999999997 10.0000000000000018   F   F   F
  2.1278000000000024 13.9128499999999988 10.0000000000000018   F   F   F
  2.1278000000000019 11.9253000000000000 12.1278000000000024   F   F   F
  0.0000000000000016  9.9377499999999994 12.1278000000000024   F   F   F
  0.0000000000000013  7.9501999999999997 16.3834000000000017   T   T   T
  2.1278000000000015  7.9501999999999997 14.2556000000000012   T   T   T
  0.0000000000000022 13.9128499999999988 14.2556000000000012   T   T   T
  2.1278000000000024 13.9128499999999988 16.3834000000000017   T   T   T
  0.0000000000000019 11.9253000000000000 16.3834000000000017   T   T   T
  2.1278000000000019 11.9253000000000000 14.2556000000000012   T   T   T
  0.0000000000000016  9.9377499999999994 14.2556000000000012   T   T   T
  2.1278000000000019  9.9377499999999994 16.3834000000000017   T   T   T
  0.0000000000000013  7.9501999999999997 14.2556000000000012   T   T   T
  2.1278000000000024 13.9128499999999988 14.2556000000000012   T   T   T
  2.1278000000000019 11.9253000000000000 16.3834000000000017   T   T   T
  0.0000000000000016  9.9377499999999994 16.3834000000000017   T   T   T
  4.2556000000000003  0.0000000000000000 12.1278000000000024   F   F   F
  6.3834000000000000  0.0000000000000000 10.0000000000000018   F   F   F
  4.2556000000000012  5.9626500000000000 10.0000000000000018   F   F   F
  6.3834000000000017  5.9626500000000000 12.1278000000000024   F   F   F
  4.2556000000000012  3.9750999999999999 12.1278000000000024   F   F   F
  6.3834000000000009  3.9750999999999999 10.0000000000000018   F   F   F
  4.2556000000000003  1.9875499999999999 10.0000000000000018   F   F   F
  6.3834000000000009  1.9875499999999999 12.1278000000000024   F   F   F
  4.2556000000000003  0.0000000000000000 10.0000000000000018   F   F   F
  6.3834000000000017  5.9626500000000000 10.0000000000000018   F   F   F
  6.3834000000000009  3.9750999999999999 12.1278000000000024   F   F   F
  4.2556000000000003  1.9875499999999999 12.1278000000000024   F   F   F
  4.2556000000000003  0.0000000000000000 16.3834000000000017   T   T   T
  6.3834000000000000  0.0000000000000000 14.2556000000000012   T   T   T
  4.2556000000000012  5.9626500000000000 14.2556000000000012   T   T   T
  6.3834000000000017  5.9626500000000000 16.3834000000000017   T   T   T
  4.2556000000000012  3.9750999999999999 16.3834000000000017   T   T   T
  6.3834000000000009  3.9750999999999999 14.2556000000000012   T   T   T
  4.2556000000000003  1.9875499999999999 14.2556000000000012   T   T   T
  6.3834000000000009  1.9875499999999999 16.3834000000000017   T   T   T
  4.2556000000000003  0.0000000000000000 14.2556000000000012   T   T   T
  6.3834000000000017  5.9626500000000000 14.2556000000000012   T   T   T
  6.3834000000000009  3.9750999999999999 16.3834000000000017   T   T   T
  4.2556000000000003  1.9875499999999999 16.3834000000000017   T   T   T
  4.2556000000000012  7.9501999999999997 12.1278000000000024   F   F   F
  6.3834000000000017  7.9501999999999997 10.0000000000000018   F   F   F
  4.2556000000000020 13.9128499999999988 10.0000000000000018   F   F   F
  6.3834000000000017 13.9128499999999988 12.1278000000000024   F   F   F
  4.2556000000000020 11.9253000000000000 12.1278000000000024   F   F   F
  6.3834000000000017 11.9253000000000000 10.0000000000000018   F   F   F
  4.2556000000000012  9.9377499999999994 10.0000000000000018   F   F   F
  6.3834000000000017  9.9377499999999994 12.1278000000000024   F   F   F
  4.2556000000000012  7.9501999999999997 10.0000000000000018   F   F   F
  6.3834000000000017 13.9128499999999988 10.0000000000000018   F   F   F
  6.3834000000000017 11.9253000000000000 12.1278000000000024   F   F   F
  4.2556000000000012  9.9377499999999994 12.1278000000000024   F   F   F
  4.2556000000000012  7.9501999999999997 16.3834000000000017   T   T   T
  6.3834000000000017  7.9501999999999997 14.2556000000000012   T   T   T
  4.2556000000000020 13.9128499999999988 14.2556000000000012   T   T   T
  6.3834000000000017 13.9128499999999988 16.3834000000000017   T   T   T
  4.2556000000000020 11.9253000000000000 16.3834000000000017   T   T   T
  6.3834000000000017 11.9253000000000000 14.2556000000000012   T   T   T
  4.2556000000000012  9.9377499999999994 14.2556000000000012   T   T   T
  6.3834000000000017  9.9377499999999994 16.3834000000000017   T   T   T
  4.2556000000000012  7.9501999999999997 14.2556000000000012   T   T   T
  6.3834000000000017 13.9128499999999988 14.2556000000000012   T   T   T
  6.3834000000000017 11.9253000000000000 16.3834000000000017   T   T   T
  4.2556000000000012  9.9377499999999994 16.3834000000000017   T   T   T
