P  Mo P  Mo P  Mo P  Mo P  Mo P  Mo P  Mo P  Mo P  Mo P  Mo P  Mo P  Mo P  Mo P  Mo P  Mo P  Mo P  Mo P  Mo P  Mo P  Mo P  Mo P  Mo P  Mo P  Mo P  Mo P  Mo P  Mo P  Mo P  Mo P  Mo P  Mo P  Mo P  Mo P  Mo P  Mo P  Mo P  Mo P  Mo P  Mo P  Mo P  Mo P  Mo P  Mo P  Mo P  Mo P  Mo P  Mo P  Mo P  Mo P  Mo P  Mo P  Mo
 1.0000000000000000
    76.3346882017290369    0.0000000000000000    0.0000000000000047
    -4.8449999999999971    8.3917861626712131    0.0000000000000006
     0.0000000000000000    0.0000000000000000   24.8150000000000048
 P   Mo  P   Mo  P   Mo  P   Mo  P   Mo  P   Mo  P   Mo  P   Mo  P   Mo  P   Mo  P   Mo  P   Mo  P   Mo  P   Mo  P   Mo  P   Mo  P   Mo  P   Mo  P   Mo  P   Mo  P   Mo  P   Mo  P   Mo  P   Mo  P   Mo  P   Mo  P   Mo  P   Mo  P   Mo  P   Mo  P   Mo  P   Mo  P   Mo  P   Mo  P   Mo  P   Mo  P   Mo  P   Mo  P   Mo  P   Mo  P   Mo  P   Mo  P   Mo  P   Mo  P   Mo  P   Mo  P   Mo  P   Mo  P   Mo  P   Mo  P   Mo  P   Mo 
   1   1   1   5   1   1   1   1   1   1   1   1   1   1   1   1   1   1   1   1   1   1   1   1   1   1   1   1   1   1   1   1   1   1   1   1   1   1   1   1   1   1   1   1   1   1   1   1   1   1   1   1   1   1   1   1   1   1   1   1   1   1   1   1   1   1   1   1   1   1   1   1   1   1   1   1   1   1   1   1   1   1   1   1   1   1   1   1   1   1   1   1   1   1   1   1   1   1   1   5   1   1   1   1
Selective dynamics
Cartesian
 23.0940107675850257  0.0000000000000000 10.0000000000000018   F   F   F
 23.0940107674235264  1.8648413695757335 11.6050000000000022   F   F   F
 23.0940107675850257  0.0000000000000000 13.2100000000000026   T   T   T
 23.0940107674235264  1.8648413695757335 14.8150000000000031   T   T   T
 21.4790107674235280  4.6621034237994712 11.6050000000000022   F   F   F
 21.4790107674235280  4.6621034237994712 14.8150000000000031   T   T   T
 19.8640107674235296  7.4593654780232086 11.6050000000000022   F   F   F
 19.8640107674235296  7.4593654780232086 14.8150000000000031   T   T   T
 26.3240107675850261  0.0000000000000000 10.0000000000000018   F   F   F
 26.3240107674235269  1.8648413695757335 11.6050000000000022   F   F   F
 26.3240107675850261  0.0000000000000000 13.2100000000000026   T   T   T
 26.3240107674235269  1.8648413695757335 14.8150000000000031   T   T   T
 24.7090107675850277  2.7972620542237374 10.0000000000000053   F   F   F
 24.7090107674235284  4.6621034237994712 11.6050000000000022   F   F   F
 24.7090107675850277  2.7972620542237374 13.2100000000000026   T   T   T
 24.7090107674235284  4.6621034237994712 14.8150000000000031   T   T   T
 23.0940107675850257  5.5945241084474748 10.0000000000000053   F   F   F
 23.0940107674235264  7.4593654780232086 11.6050000000000058   F   F   F
 23.0940107675850257  5.5945241084474748 13.2100000000000026   T   T   T
 23.0940107674235264  7.4593654780232086 14.8150000000000031   T   T   T
 29.5540107675850265  0.0000000000000000 10.0000000000000053   F   F   F
 29.5540107674235273  1.8648413695757335 11.6050000000000022   F   F   F
 29.5540107675850265  0.0000000000000000 13.2100000000000026   T   T   T
 29.5540107674235273  1.8648413695757335 14.8150000000000031   T   T   T
 27.9390107675850246  2.7972620542237374 10.0000000000000053   F   F   F
 27.9390107674235253  4.6621034237994712 11.6050000000000058   F   F   F
 27.9390107675850246  2.7972620542237374 13.2100000000000026   T   T   T
 27.9390107674235253  4.6621034237994712 14.8150000000000031   T   T   T
 26.3240107675850261  5.5945241084474748 10.0000000000000053   F   F   F
 26.3240107674235269  7.4593654780232086 11.6050000000000058   F   F   F
 26.3240107675850261  5.5945241084474748 13.2100000000000026   T   T   T
 26.3240107674235269  7.4593654780232086 14.8150000000000066   T   T   T
 32.7840107675850234  0.0000000000000000 10.0000000000000053   F   F   F
 32.7840107674235242  1.8648413695757335 11.6050000000000058   F   F   F
 32.7840107675850234  0.0000000000000000 13.2100000000000026   T   T   T
 32.7840107674235242  1.8648413695757335 14.8150000000000031   T   T   T
 31.1690107675850285  2.7972620542237374 10.0000000000000053   F   F   F
 31.1690107674235293  4.6621034237994712 11.6050000000000058   F   F   F
 31.1690107675850285  2.7972620542237374 13.2100000000000026   T   T   T
 31.1690107674235293  4.6621034237994712 14.8150000000000066   T   T   T
 29.5540107675850265  5.5945241084474748 10.0000000000000053   F   F   F
 29.5540107674235273  7.4593654780232086 11.6050000000000058   F   F   F
 29.5540107675850265  5.5945241084474748 13.2100000000000026   T   T   T
 29.5540107674235273  7.4593654780232086 14.8150000000000066   T   T   T
 36.0140107675850274  0.0000000000000000 10.0000000000000053   F   F   F
 36.0140107674235281  1.8648413695757335 11.6050000000000058   F   F   F
 36.0140107675850274  0.0000000000000000 13.2100000000000026   T   T   T
 36.0140107674235281  1.8648413695757335 14.8150000000000066   T   T   T
 34.3990107675850254  2.7972620542237374 10.0000000000000053   F   F   F
 34.3990107674235261  4.6621034237994712 11.6050000000000058   F   F   F
 34.3990107675850254  2.7972620542237374 13.2100000000000026   T   T   T
 34.3990107674235261  4.6621034237994712 14.8150000000000066   T   T   T
 32.7840107675850305  5.5945241084474748 10.0000000000000053   F   F   F
 32.7840107674235242  7.4593654780232086 11.6050000000000058   F   F   F
 32.7840107675850305  5.5945241084474748 13.2100000000000026   T   T   T
 32.7840107674235242  7.4593654780232086 14.8150000000000066   T   T   T
 39.2440107675850243  0.0000000000000000 10.0000000000000053   F   F   F
 39.2440107674235250  1.8648413695757335 11.6050000000000058   F   F   F
 39.2440107675850243  0.0000000000000000 13.2100000000000026   T   T   T
 39.2440107674235250  1.8648413695757335 14.8150000000000066   T   T   T
 37.6290107675850294  2.7972620542237374 10.0000000000000053   F   F   F
 37.6290107674235230  4.6621034237994712 11.6050000000000058   F   F   F
 37.6290107675850294  2.7972620542237374 13.2100000000000026   T   T   T
 37.6290107674235230  4.6621034237994712 14.8150000000000066   T   T   T
 36.0140107675850274  5.5945241084474748 10.0000000000000053   F   F   F
 36.0140107674235281  7.4593654780232086 11.6050000000000058   F   F   F
 36.0140107675850274  5.5945241084474748 13.2100000000000026   T   T   T
 36.0140107674235281  7.4593654780232086 14.8150000000000066   T   T   T
 42.4740107675850282  0.0000000000000000 10.0000000000000053   F   F   F
 42.4740107674235219  1.8648413695757335 11.6050000000000058   F   F   F
 42.4740107675850282  0.0000000000000000 13.2100000000000026   T   T   T
 42.4740107674235219  1.8648413695757335 14.8150000000000066   T   T   T
 40.8590107675850263  2.7972620542237374 10.0000000000000053   F   F   F
 40.8590107674235270  4.6621034237994712 11.6050000000000058   F   F   F
 40.8590107675850263  2.7972620542237374 13.2100000000000026   T   T   T
 40.8590107674235270  4.6621034237994712 14.8150000000000066   T   T   T
 39.2440107675850243  5.5945241084474748 10.0000000000000053   F   F   F
 39.2440107674235321  7.4593654780232086 11.6050000000000058   F   F   F
 39.2440107675850243  5.5945241084474748 13.2100000000000062   T   T   T
 39.2440107674235321  7.4593654780232086 14.8150000000000066   T   T   T
 45.7040107675850251  0.0000000000000000 10.0000000000000053   F   F   F
 45.7040107674235259  1.8648413695757335 11.6050000000000058   F   F   F
 45.7040107675850251  0.0000000000000000 13.2100000000000026   T   T   T
 45.7040107674235259  1.8648413695757335 14.8150000000000066   T   T   T
 44.0890107675850231  2.7972620542237374 10.0000000000000053   F   F   F
 44.0890107674235310  4.6621034237994712 11.6050000000000058   F   F   F
 44.0890107675850231  2.7972620542237374 13.2100000000000062   T   T   T
 44.0890107674235310  4.6621034237994712 14.8150000000000066   T   T   T
 42.4740107675850282  5.5945241084474748 10.0000000000000053   F   F   F
 42.4740107674235290  7.4593654780232086 11.6050000000000058   F   F   F
 42.4740107675850282  5.5945241084474748 13.2100000000000062   T   T   T
 42.4740107674235290  7.4593654780232086 14.8150000000000066   T   T   T
 48.9340107675850220  0.0000000000000000 10.0000000000000053   F   F   F
 48.9340107674235298  1.8648413695757335 11.6050000000000058   F   F   F
 48.9340107675850220  0.0000000000000000 13.2100000000000062   T   T   T
 48.9340107674235298  1.8648413695757335 14.8150000000000066   T   T   T
 47.3190107675850271  2.7972620542237374 10.0000000000000053   F   F   F
 47.3190107674235279  4.6621034237994712 11.6050000000000058   F   F   F
 47.3190107675850271  2.7972620542237374 13.2100000000000062   T   T   T
 47.3190107674235279  4.6621034237994712 14.8150000000000066   T   T   T
 45.7040107675850322  5.5945241084474748 10.0000000000000053   F   F   F
 45.7040107674235259  7.4593654780232086 11.6050000000000058   F   F   F
 45.7040107675850322  5.5945241084474748 13.2100000000000062   T   T   T
 45.7040107674235259  7.4593654780232086 14.8150000000000066   T   T   T
 52.1640107674235267  1.8648413695757335 11.6050000000000058   F   F   F
 52.1640107674235267  1.8648413695757335 14.8150000000000066   T   T   T
 50.5490107674235247  4.6621034237994712 11.6050000000000058   F   F   F
 50.5490107674235247  4.6621034237994712 14.8150000000000066   T   T   T
 48.9340107675850291  5.5945241084474748 10.0000000000000053   F   F   F
 48.9340107674235298  7.4593654780232086 11.6050000000000058   F   F   F
 48.9340107675850291  5.5945241084474748 13.2100000000000062   T   T   T
 48.9340107674235298  7.4593654780232086 14.8150000000000066   T   T   T
