Mo Se Mo Se Mo Se Mo Se Mo Se Mo Se Mo Se Mo Se Mo Se Mo Se Mo Se Mo Se
 1.0000000000000000
    36.0165419476206168    0.0000000000000000    0.0000000000000022
    -3.2889999999999984    5.6967151060940386    0.0000000000000004
     0.0000000000000000    0.0000000000000000   25.8260400000000025
 Mo  Se  Mo  Se  Mo  Se  Mo  Se  Mo  Se  Mo  Se  Mo  Se  Mo  Se  Mo  Se  Mo  Se  Mo  Se  Mo  Se 
   2   4   1   4   2   4   2   4   2   4   2   4   2   4   2   4   2   4   2   4   1   4   2   4
Selective dynamics
Cartesian
  8.1412709736458595  1.8989050354596246  9.6807699999999990   F   F   F
  9.7857709739747598  0.9494525175873945 16.1452699999999965   T   T   T
  8.1412709736458595  1.8989050354596246 17.8260399999999990   T   T   T
  9.7857709739747598  0.9494525175873945 11.3615399999999998   F   F   F
  9.7857709739747598  0.9494525175873946  8.0000000000000000   F   F   F
  8.1412709736458595  1.8989050354596251 14.4644999999999992   T   T   T
  8.1412709739747608  3.7978100706344140 16.1452699999999965   T   T   T
  6.4967709736458605  4.7472625885066435 17.8260399999999990   T   T   T
  8.1412709739747608  3.7978100706344140 11.3615399999999998   F   F   F
  8.1412709739747608  3.7978100706344140  8.0000000000000000   F   F   F
  6.4967709736458605  4.7472625885066444 14.4644999999999992   T   T   T
 11.4302709736458610  1.8989050354596246  9.6807699999999990   F   F   F
 13.0747709739747613  0.9494525175873945 16.1452699999999965   T   T   T
 11.4302709736458610  1.8989050354596246 17.8260399999999990   T   T   T
 13.0747709739747613  0.9494525175873945 11.3615399999999998   F   F   F
 13.0747709739747595  0.9494525175873946  8.0000000000000000   F   F   F
 11.4302709736458610  1.8989050354596251 14.4644999999999992   T   T   T
  9.7857709736458602  4.7472625885066435  9.6807699999999990   F   F   F
 11.4302709739747606  3.7978100706344140 16.1452699999999965   T   T   T
  9.7857709736458602  4.7472625885066435 17.8260399999999990   T   T   T
 11.4302709739747606  3.7978100706344140 11.3615399999999998   F   F   F
 11.4302709739747606  3.7978100706344140  8.0000000000000000   F   F   F
  9.7857709736458602  4.7472625885066444 14.4644999999999992   T   T   T
 14.7192709736458607  1.8989050354596246  9.6807699999999990   F   F   F
 16.3637709739747592  0.9494525175873945 16.1452699999999965   T   T   T
 14.7192709736458607  1.8989050354596246 17.8260399999999990   T   T   T
 16.3637709739747592  0.9494525175873945 11.3615399999999998   F   F   F
 16.3637709739747592  0.9494525175873946  8.0000000000000000   F   F   F
 14.7192709736458589  1.8989050354596251 14.4644999999999992   T   T   T
 13.0747709736458617  4.7472625885066435  9.6807699999999990   F   F   F
 14.7192709739747620  3.7978100706344140 16.1452699999999965   T   T   T
 13.0747709736458617  4.7472625885066435 17.8260399999999990   T   T   T
 14.7192709739747620  3.7978100706344140 11.3615400000000015   F   F   F
 14.7192709739747620  3.7978100706344140  8.0000000000000018   F   F   F
 13.0747709736458617  4.7472625885066444 14.4644999999999992   T   T   T
 18.0082709736458604  1.8989050354596246  9.6807699999999990   F   F   F
 19.6527709739747607  0.9494525175873945 16.1452699999999965   T   T   T
 18.0082709736458604  1.8989050354596246 17.8260399999999990   T   T   T
 19.6527709739747607  0.9494525175873945 11.3615400000000015   F   F   F
 19.6527709739747607  0.9494525175873946  8.0000000000000018   F   F   F
 18.0082709736458604  1.8989050354596251 14.4644999999999992   T   T   T
 16.3637709736458632  4.7472625885066435  9.6807699999999990   F   F   F
 18.0082709739747600  3.7978100706344140 16.1452699999999965   T   T   T
 16.3637709736458632  4.7472625885066435 17.8260399999999990   T   T   T
 18.0082709739747600  3.7978100706344140 11.3615400000000015   F   F   F
 18.0082709739747600  3.7978100706344140  8.0000000000000018   F   F   F
 16.3637709736458632  4.7472625885066444 14.4644999999999992   T   T   T
 21.2972709736458583  1.8989050354596246  9.6807699999999990   F   F   F
 22.9417709739747622  0.9494525175873945 16.1452699999999965   T   T   T
 21.2972709736458583  1.8989050354596246 17.8260399999999990   T   T   T
 22.9417709739747622  0.9494525175873945 11.3615400000000015   F   F   F
 22.9417709739747622  0.9494525175873946  8.0000000000000018   F   F   F
 21.2972709736458583  1.8989050354596251 14.4644999999999992   T   T   T
 19.6527709736458611  4.7472625885066435  9.6807699999999990   F   F   F
 21.2972709739747614  3.7978100706344140 16.1452700000000000   T   T   T
 19.6527709736458611  4.7472625885066435 17.8260399999999990   T   T   T
 21.2972709739747614  3.7978100706344140 11.3615400000000015   F   F   F
 21.2972709739747614  3.7978100706344140  8.0000000000000018   F   F   F
 19.6527709736458611  4.7472625885066444 14.4645000000000010   T   T   T
 24.5862709736458598  1.8989050354596246  9.6807699999999990   F   F   F
 24.5862709736458598  1.8989050354596246 17.8260399999999990   T   T   T
 26.2307709739747636  0.9494525175873945 11.3615400000000015   F   F   F
 26.2307709739747565  0.9494525175873946  8.0000000000000018   F   F   F
 24.5862709736458598  1.8989050354596251 14.4645000000000010   T   T   T
 22.9417709736458590  4.7472625885066435  9.6807700000000008   F   F   F
 24.5862709739747629  3.7978100706344140 16.1452700000000000   T   T   T
 22.9417709736458590  4.7472625885066435 17.8260399999999990   T   T   T
 24.5862709739747629  3.7978100706344140 11.3615400000000015   F   F   F
 24.5862709739747629  3.7978100706344140  8.0000000000000018   F   F   F
 22.9417709736458590  4.7472625885066444 14.4645000000000010   T   T   T
