O  Ti C  Ti C  Ti O  Ti C  Ti C  Ti O  Ti C  Ti C  Ti O  Ti C  Ti C  Ti O  Ti C  Ti C  Ti O  Ti C  Ti C  Ti O  Ti C  Ti C  Ti O  Ti C  Ti C  Ti O  Ti C  Ti C  Ti O 
 1.0000000000000000
     9.2130000000000010    0.0000000000000000    0.0000000000000000
    -4.6065000000000005    7.9786920450660332    0.0000000000000000
     0.0000000000000000    0.0000000000000000   26.0000000000000000
 O   Ti  C   Ti  C   Ti  O   Ti  C   Ti  C   Ti  O   Ti  C   Ti  C   Ti  O   Ti  C   Ti  C   Ti  O   Ti  C   Ti  C   Ti  O   Ti  C   Ti  C   Ti  O   Ti  C   Ti  C   Ti  O   Ti  C   Ti  C   Ti  O   Ti  C   Ti  C   Ti  O  
   1   1   1   1   1   1   2   1   1   1   1   1   2   1   1   1   1   1   2   1   1   1   1   1   2   1   1   1   1   1   2   1   1   1   1   1   2   1   1   1   1   1   2   1   1   1   1   1   2   1   1   1   1   1   1
Selective dynamics
Cartesian
  0.0000000000000003  1.7730426766813407 10.0000000000000000   F   F   F
  1.5355000000000005  0.8865213383406704 11.0000000000000000   F   F   F
  0.0000000000000000  0.0000000000000000 12.0000000000000000   F   F   F
  0.0000000000000003  1.7730426766813407 13.0000000000000000   T   T   T
  1.5355000000000005  0.8865213383406704 14.0000000000000000   T   T   T
  0.0000000000000000  0.0000000000000000 15.0000000000000000   T   T   T
  0.0000000000000003  1.7730426766813407 16.0000000000000000   T   T   T
 -1.5354999999999999  4.4326066917033522 10.0000000000000000   F   F   F
  0.0000000000000004  3.5460853533626815 11.0000000000000000   F   F   F
 -1.5355000000000001  2.6595640150220112 12.0000000000000000   F   F   F
 -1.5354999999999999  4.4326066917033522 13.0000000000000000   T   T   T
  0.0000000000000004  3.5460853533626815 14.0000000000000000   T   T   T
 -1.5355000000000001  2.6595640150220112 15.0000000000000000   T   T   T
 -1.5354999999999999  4.4326066917033522 16.0000000000000000   T   T   T
 -3.0709999999999997  7.0921707067253630 10.0000000000000000   F   F   F
 -1.5354999999999996  6.2056493683846927 11.0000000000000000   F   F   F
 -3.0710000000000002  5.3191280300440225 12.0000000000000000   F   F   F
 -3.0709999999999997  7.0921707067253630 13.0000000000000000   T   T   T
 -1.5354999999999996  6.2056493683846927 14.0000000000000000   T   T   T
 -3.0710000000000002  5.3191280300440225 15.0000000000000000   T   T   T
 -3.0709999999999997  7.0921707067253630 16.0000000000000000   T   T   T
  3.0710000000000006  1.7730426766813407 10.0000000000000000   F   F   F
  4.6065000000000005  0.8865213383406704 11.0000000000000000   F   F   F
  3.0710000000000002  0.0000000000000000 12.0000000000000000   F   F   F
  3.0710000000000006  1.7730426766813407 13.0000000000000000   T   T   T
  4.6065000000000005  0.8865213383406704 14.0000000000000000   T   T   T
  3.0710000000000002  0.0000000000000000 15.0000000000000000   T   T   T
  3.0710000000000006  1.7730426766813407 16.0000000000000000   T   T   T
  1.5355000000000003  4.4326066917033522 10.0000000000000000   F   F   F
  3.0710000000000006  3.5460853533626815 11.0000000000000000   F   F   F
  1.5355000000000001  2.6595640150220112 12.0000000000000000   F   F   F
  1.5355000000000003  4.4326066917033522 13.0000000000000000   T   T   T
  3.0710000000000006  3.5460853533626815 14.0000000000000000   T   T   T
  1.5355000000000001  2.6595640150220112 15.0000000000000000   T   T   T
  1.5355000000000003  4.4326066917033522 16.0000000000000000   T   T   T
  0.0000000000000003  7.0921707067253630 10.0000000000000000   F   F   F
  1.5355000000000005  6.2056493683846927 11.0000000000000000   F   F   F
  0.0000000000000000  5.3191280300440225 12.0000000000000000   F   F   F
  0.0000000000000003  7.0921707067253630 13.0000000000000000   T   T   T
  1.5355000000000005  6.2056493683846927 14.0000000000000000   T   T   T
  0.0000000000000000  5.3191280300440225 15.0000000000000000   T   T   T
  0.0000000000000003  7.0921707067253630 16.0000000000000000   T   T   T
  6.1420000000000003  1.7730426766813407 10.0000000000000000   F   F   F
  7.6775000000000011  0.8865213383406704 11.0000000000000000   F   F   F
  6.1420000000000003  0.0000000000000000 12.0000000000000000   F   F   F
  6.1420000000000003  1.7730426766813407 13.0000000000000000   T   T   T
  7.6775000000000011  0.8865213383406704 14.0000000000000000   T   T   T
  6.1420000000000003  0.0000000000000000 15.0000000000000000   T   T   T
  6.1420000000000003  1.7730426766813407 16.0000000000000000   T   T   T
  4.6065000000000005  4.4326066917033522 10.0000000000000000   F   F   F
  6.1420000000000012  3.5460853533626815 11.0000000000000000   F   F   F
  4.6065000000000005  2.6595640150220112 12.0000000000000000   F   F   F
  4.6065000000000005  4.4326066917033522 13.0000000000000000   T   T   T
  6.1420000000000012  3.5460853533626815 14.0000000000000000   T   T   T
  4.6065000000000005  2.6595640150220112 15.0000000000000000   T   T   T
  4.6065000000000005  4.4326066917033522 16.0000000000000000   T   T   T
  3.0710000000000006  7.0921707067253630 10.0000000000000000   F   F   F
  4.6065000000000005  6.2056493683846927 11.0000000000000000   F   F   F
  3.0710000000000002  5.3191280300440225 12.0000000000000000   F   F   F
  3.0710000000000006  7.0921707067253630 13.0000000000000000   T   T   T
  4.6065000000000005  6.2056493683846927 14.0000000000000000   T   T   T
  3.0710000000000002  5.3191280300440225 15.0000000000000000   T   T   T
  3.0710000000000006  7.0921707067253630 16.0000000000000000   T   T   T
