Mo Ir Mo N  Mo N  Mo N  Mo N 
 1.0000000000000000
     8.5112000000000005    0.0000000000000000    0.0000000000000005
     0.0000000000000014    8.5112000000000005    0.0000000000000005
     0.0000000000000000    0.0000000000000000   25.9626500000000000
 Mo  Ir  Mo  N   Mo  N   Mo  N   Mo  N  
   1   1   6   4   8   4   8   4   8   4
Selective dynamics
Cartesian
  0.0000000000000000  0.0000000000000000 15.9626500000000000   T   T   T
  2.1278000000000006  2.1278000000000001 15.9626500000000000   T   T   T
  2.1278000000000001  0.0000000000000000 10.0000000000000000   F   F   F
  0.0000000000000003  2.1278000000000001 10.0000000000000000   F   F   F
  0.0000000000000000  0.0000000000000000 11.9875500000000006   F   F   F
  2.1278000000000006  2.1278000000000001 11.9875500000000006   F   F   F
  2.1278000000000001  0.0000000000000000 13.9751000000000012   T   T   T
  0.0000000000000003  2.1278000000000001 13.9751000000000012   T   T   T
  2.1278000000000001  0.0000000000000000 15.9626500000000000   T   T   T
  2.1278000000000006  2.1278000000000001 10.0000000000000000   F   F   F
  0.0000000000000003  2.1278000000000001 11.9875500000000006   F   F   F
  0.0000000000000000  0.0000000000000000 13.9751000000000012   T   T   T
  0.0000000000000007  4.2556000000000003 15.9626500000000000   T   T   T
  2.1278000000000015  6.3834000000000000 15.9626500000000000   T   T   T
  2.1278000000000010  4.2556000000000003 10.0000000000000000   F   F   F
  0.0000000000000010  6.3834000000000000 10.0000000000000000   F   F   F
  0.0000000000000007  4.2556000000000003 11.9875500000000006   F   F   F
  2.1278000000000015  6.3834000000000000 11.9875500000000006   F   F   F
  2.1278000000000010  4.2556000000000003 13.9751000000000012   T   T   T
  0.0000000000000010  6.3834000000000000 13.9751000000000012   T   T   T
  2.1278000000000010  4.2556000000000003 15.9626500000000000   T   T   T
  2.1278000000000015  6.3834000000000000 10.0000000000000000   F   F   F
  0.0000000000000010  6.3834000000000000 11.9875500000000006   F   F   F
  0.0000000000000007  4.2556000000000003 13.9751000000000012   T   T   T
  4.2556000000000003  0.0000000000000000 15.9626500000000000   T   T   T
  6.3834000000000009  2.1278000000000001 15.9626500000000000   T   T   T
  6.3834000000000000  0.0000000000000000 10.0000000000000000   F   F   F
  4.2556000000000003  2.1278000000000001 10.0000000000000000   F   F   F
  4.2556000000000003  0.0000000000000000 11.9875500000000006   F   F   F
  6.3834000000000009  2.1278000000000001 11.9875500000000006   F   F   F
  6.3834000000000000  0.0000000000000000 13.9751000000000012   T   T   T
  4.2556000000000003  2.1278000000000001 13.9751000000000012   T   T   T
  6.3834000000000000  0.0000000000000000 15.9626500000000000   T   T   T
  6.3834000000000009  2.1278000000000001 10.0000000000000000   F   F   F
  4.2556000000000003  2.1278000000000001 11.9875500000000006   F   F   F
  4.2556000000000003  0.0000000000000000 13.9751000000000012   T   T   T
  4.2556000000000012  4.2556000000000003 15.9626500000000000   T   T   T
  6.3834000000000017  6.3834000000000000 15.9626500000000000   T   T   T
  6.3834000000000017  4.2556000000000003 10.0000000000000000   F   F   F
  4.2556000000000012  6.3834000000000000 10.0000000000000000   F   F   F
  4.2556000000000012  4.2556000000000003 11.9875500000000006   F   F   F
  6.3834000000000017  6.3834000000000000 11.9875500000000006   F   F   F
  6.3834000000000017  4.2556000000000003 13.9751000000000012   T   T   T
  4.2556000000000012  6.3834000000000000 13.9751000000000012   T   T   T
  6.3834000000000017  4.2556000000000003 15.9626500000000000   T   T   T
  6.3834000000000017  6.3834000000000000 10.0000000000000000   F   F   F
  4.2556000000000012  6.3834000000000000 11.9875500000000006   F   F   F
  4.2556000000000012  4.2556000000000003 13.9751000000000012   T   T   T
