Ni B  Mo Ru
 1.0000000000000000
    17.9485486878466034    0.0000000000000000    0.0000000000000011
     7.5936167525504930   20.3266373169637795    0.0000000000000013
     0.0000000000000000    0.0000000000000000   40.4740675804443271
 Ni  B   Mo  Ru 
 272 160 160   4
Selective dynamics
Cartesian
 18.9840418813762177  4.1848959181984240 10.6185168951110853   F   F   F
 17.2582198921601950  2.3913690961133849 10.6185168951110853   F   F   F
 15.5323979029441741  0.5978422740283443 10.6185168951110853   F   F   F
 20.0195350749058285  8.3697918363968480 10.6185168951110889   F   F   F
 18.2937130856898094  6.5762650143118115 10.6185168951110853   F   F   F
 16.5678910964737902  4.7827381922267724 10.6185168951110889   F   F   F
 14.8420691072577640  2.9892113701417320 10.6185168951110853   F   F   F
 13.1162471180417484  1.1956845480566916 10.6185168951110818   F   F   F
 22.7808502576514620 14.3482145766803129 10.6185168951110889   F   F   F
 21.0550282684354464 12.5546877545952782 10.6185168951110889   F   F   F
 19.3292062792194237 10.7611609325102346 10.6185168951110889   F   F   F
 17.6033842900034045  8.9676341104251946 10.6185168951110889   F   F   F
 15.8775623007873818  7.1741072883401591 10.6185168951110853   F   F   F
 14.1517403115713609  5.3805804662551191 10.6185168951110889   F   F   F
 12.4259183223553400  3.5870536441700791 10.6185168951110853   F   F   F
 10.7000963331393208  1.7935268220850387 10.6185168951110853   F   F   F
  8.9742743439233017  0.0000000000000000 10.6185168951110853   F   F   F
 23.8163434511810799 18.5331104948787377 10.6185168951110924   F   F   F
 22.0905214619650572 16.7395836727937031 10.6185168951110924   F   F   F
 20.3646994727490380 14.9460568507086595 10.6185168951110889   F   F   F
 18.6388774835330118 13.1525300286236213 10.6185168951110853   F   F   F
 16.9130554943169926 11.3590032065385778 10.6185168951110889   F   F   F
 15.1872335051009735  9.5654763844535413 10.6185168951110889   F   F   F
 13.4614115158849543  7.7719495623685031 10.6185168951110889   F   F   F
 11.7355895266689334  5.9784227402834640 10.6185168951110889   F   F   F
 10.0097675374529143  4.1848959181984240 10.6185168951110853   F   F   F
  8.2839455482368951  2.3913690961133853 10.6185168951110853   F   F   F
  6.5581235590208724  0.5978422740283460 10.6185168951110853   F   F   F
 21.4001926662786452 19.1309527689070826 10.6185168951110889   F   F   F
 19.6743706770626297 17.3374259468220444 10.6185168951110889   F   F   F
 17.9485486878466105 15.5438991247370062 10.6185168951110889   F   F   F
 16.2227266986305878 13.7503723026519644 10.6185168951110853   F   F   F
 14.4969047094145669 11.9568454805669244 10.6185168951110889   F   F   F
 12.7710827201985495 10.1633186584818880 10.6185168951110853   F   F   F
 11.0452607309825268  8.3697918363968498 10.6185168951110889   F   F   F
  9.3194387417665059  6.5762650143118107 10.6185168951110818   F   F   F
  7.5936167525504885  4.7827381922267715 10.6185168951110853   F   F   F
  5.8677947633344676  2.9892113701417311 10.6185168951110818   F   F   F
  4.1419727741184467  1.1956845480566924 10.6185168951110818   F   F   F
 18.9840418813762213 19.7287950429354311 10.6185168951110924   F   F   F
 17.2582198921601986 17.9352682208503929 10.6185168951110889   F   F   F
 15.5323979029441830 16.1417413987653511 10.6185168951110889   F   F   F
 13.8065759137281603 14.3482145766803129 10.6185168951110889   F   F   F
 12.0807539245121411 12.5546877545952711 10.6185168951110889   F   F   F
 10.3549319352961184 10.7611609325102346 10.6185168951110889   F   F   F
  8.6291099460801011  8.9676341104251946 10.6185168951110889   F   F   F
  6.9032879568640819  7.1741072883401564 10.6185168951110853   F   F   F
  5.1774659676480610  5.3805804662551173 10.6185168951110853   F   F   F
  3.4516439784320401  3.5870536441700782 10.6185168951110853   F   F   F
  1.7258219892160200  1.7935268220850387 10.6185168951110818   F   F   F
  0.0000000000000002 -0.0000000000000001 10.6185168951110818   F   F   F
 14.8420691072577746 18.5331104948787413 10.6185168951110889   F   F   F
 13.1162471180417519 16.7395836727936960 10.6185168951110889   F   F   F
 11.3904251288257328 14.9460568507086595 10.6185168951110889   F   F   F
  9.6646031396097136 13.1525300286236213 10.6185168951110889   F   F   F
  7.9387811503936954 11.3590032065385813 10.6185168951110889   F   F   F
  6.2129591611776736  9.5654763844535413 10.6185168951110853   F   F   F
  4.4871371719616526  7.7719495623685031 10.6185168951110818   F   F   F
  2.7613151827456335  5.9784227402834640 10.6185168951110853   F   F   F
 12.4259183223553471 19.1309527689070862 10.6185168951110889   F   F   F
 10.7000963331393280 17.3374259468220480 10.6185168951110889   F   F   F
  8.9742743439233053 15.5438991247370062 10.6185168951110889   F   F   F
  7.2484523547072879 13.7503723026519697 10.6185168951110889   F   F   F
  5.5226303654912661 11.9568454805669280 10.6185168951110853   F   F   F
  3.7968083762752456 10.1633186584818880 10.6185168951110853   F   F   F
 10.0097675374529196 19.7287950429354311 10.6185168951110853   F   F   F
  8.2839455482369004 17.9352682208503893 10.6185168951110889   F   F   F
  6.5581235590208804 16.1417413987653511 10.6185168951110889   F   F   F
 17.6033842900034010  3.7863344021795258 12.6507898426585683   F   F   F
 15.8775623007873801  1.9928075800944864 12.6507898426585683   F   F   F
 14.1517403115713609  0.1992807580094481 12.6507898426585683   F   F   F
 18.6388774835330082  7.9712303203779511 12.6507898426585719   F   F   F
 16.9130554943169926  6.1777034982929120 12.6507898426585719   F   F   F
 15.1872335051009735  4.3841766762078738 12.6507898426585719   F   F   F
 13.4614115158849508  2.5906498541228333 12.6507898426585683   F   F   F
 11.7355895266689334  0.7971230320377944 12.6507898426585683   F   F   F
 21.4001926662786452 13.9496530606614169 12.6507898426585719   F   F   F
 19.6743706770626261 12.1561262385763769 12.6507898426585719   F   F   F
 17.9485486878466034 10.3625994164913351 12.6507898426585719   F   F   F
 16.2227266986305878  8.5690725944062986 12.6507898426585683   F   F   F
 14.4969047094145651  6.7755457723212587 12.6507898426585719   F   F   F
 12.7710827201985495  4.9820189502362222 12.6507898426585719   F   F   F
 11.0452607309825233  3.1884921281511818 12.6507898426585683   F   F   F
  9.3194387417665041  1.3949653060661413 12.6507898426585683   F   F   F
 15.1872335051009770 19.9280758009448817 12.6507898426585683   F   F   F
 22.4356858598082596 18.1345489788598400 12.6507898426585719   F   F   F
 20.7098638705922404 16.3410221567747982 12.6507898426585754   F   F   F
 18.9840418813762213 14.5474953346897617 12.6507898426585719   F   F   F
 17.2582198921601986 12.7539685126047235 12.6507898426585719   F   F   F
 15.5323979029441812 10.9604416905196853 12.6507898426585683   F   F   F
 13.8065759137281585  9.1669148684346453 12.6507898426585719   F   F   F
 12.0807539245121340  7.3733880463496053 12.6507898426585683   F   F   F
 10.3549319352961184  5.5798612242645662 12.6507898426585683   F   F   F
  8.6291099460800993  3.7863344021795275 12.6507898426585683   F   F   F
  6.9032879568640784  1.9928075800944873 12.6507898426585683   F   F   F
  5.1774659676480583  0.1992807580094481 12.6507898426585683   F   F   F
 20.0195350749058356 18.7323912528881884 12.6507898426585719   F   F   F
 18.2937130856898129 16.9388644308031466 12.6507898426585754   F   F   F
 16.5678910964737973 15.1453376087181102 12.6507898426585754   F   F   F
 14.8420691072577728 13.3518107866330684 12.6507898426585719   F   F   F
 13.1162471180417519 11.5582839645480284 12.6507898426585719   F   F   F
 11.3904251288257328  9.7647571424629920 12.6507898426585719   F   F   F
  9.6646031396097101  7.9712303203779511 12.6507898426585719   F   F   F
  7.9387811503936891  6.1777034982929120 12.6507898426585683   F   F   F
  6.2129591611776709  4.3841766762078729 12.6507898426585683   F   F   F
  4.4871371719616508  2.5906498541228347 12.6507898426585683   F   F   F
  2.7613151827456317  0.7971230320377947 12.6507898426585683   F   F   F
 17.6033842900034081 19.3302335269165333 12.6507898426585719   F   F   F
 15.8775623007873854 17.5367067048314915 12.6507898426585754   F   F   F
 14.1517403115713662 15.7431798827464551 12.6507898426585719   F   F   F
 12.4259183223553435 13.9496530606614151 12.6507898426585719   F   F   F
 10.7000963331393244 12.1561262385763751 12.6507898426585719   F   F   F
  8.9742743439233053 10.3625994164913386 12.6507898426585719   F   F   F
  7.2484523547072852  8.5690725944062969 12.6507898426585683   F   F   F
  5.5226303654912652  6.7755457723212595 12.6507898426585683   F   F   F
  3.7968083762752443  4.9820189502362195 12.6507898426585683   F   F   F
  2.0709863870592251  3.1884921281511809 12.6507898426585683   F   F   F
 18.2937130856898058  1.3949653060661407 12.6507898426585683   F   F   F
 24.1615078490242823 19.9280758009448782 12.6507898426585754   F   F   F
 13.4614115158849597 18.1345489788598435 12.6507898426585719   F   F   F
 11.7355895266689387 16.3410221567748053 12.6507898426585719   F   F   F
 10.0097675374529178 14.5474953346897635 12.6507898426585719   F   F   F
  8.2839455482368969 12.7539685126047200 12.6507898426585719   F   F   F
  6.5581235590208795 10.9604416905196853 12.6507898426585683   F   F   F
  4.8323015698048586  9.1669148684346453 12.6507898426585683   F   F   F
  3.1064795805888377  7.3733880463496062 12.6507898426585683   F   F   F
 19.3292062792194201  5.5798612242645653 12.6507898426585719   F   F   F
 11.0452607309825304 18.7323912528881849 12.6507898426585719   F   F   F
  9.3194387417665112 16.9388644308031502 12.6507898426585719   F   F   F
  7.5936167525504903 15.1453376087181084 12.6507898426585719   F   F   F
  5.8677947633344729 13.3518107866330737 12.6507898426585683   F   F   F
 22.0905214619650536 11.5582839645480302 12.6507898426585683   F   F   F
 20.3646994727490309  9.7647571424629884 12.6507898426585719   F   F   F
  8.6291099460801082 19.3302335269165368 12.6507898426585719   F   F   F
  6.9032879568640819 17.5367067048314915 12.6507898426585719   F   F   F
 23.1260146554946644 15.7431798827464497 12.6507898426585719   F   F   F
 17.9485486878466034  5.1812997082456640 14.6830627902060513   T   T   T
 16.2227266986305843  3.3877728861606271 14.6830627902060513   T   T   T
 14.4969047094145633  1.5942460640755882 14.6830627902060549   T   T   T
 18.9840418813762213  9.3661956264440924 14.6830627902060549   T   T   T
 17.2582198921601986  7.5726688043590533 14.6830627902060549   T   T   T
 15.5323979029441794  5.7791419822740133 14.6830627902060513   T   T   T
 13.8065759137281567  3.9856151601889747 14.6830627902060549   T   T   T
 12.0807539245121358  2.1920883381039342 14.6830627902060478   T   T   T
 21.7453570641218512 15.3446183667275573 14.6830627902060549   T   T   T
 20.0195350749058321 13.5510915446425209 14.6830627902060549   T   T   T
 18.2937130856898165 11.7575647225574791 14.6830627902060549   T   T   T
 16.5678910964737902  9.9640379004724391 14.6830627902060478   T   T   T
 14.8420691072577711  8.1705110783873991 14.6830627902060513   T   T   T
 13.1162471180417501  6.3769842563023618 14.6830627902060513   T   T   T
 11.3904251288257292  4.5834574342173227 14.6830627902060549   T   T   T
  9.6646031396097083  2.7899306121322822 14.6830627902060513   T   T   T
  7.9387811503936900  0.9964037900472428 14.6830627902060478   T   T   T
 22.7808502576514620 19.5295142849259840 14.6830627902060549   T   T   T
 21.0550282684354428 17.7359874628409422 14.6830627902060584   T   T   T
 19.3292062792194272 15.9424606407559022 14.6830627902060549   T   T   T
 17.6033842900034010 14.1489338186708604 14.6830627902060549   T   T   T
 15.8775623007873818 12.3554069965858240 14.6830627902060549   T   T   T
 14.1517403115713645 10.5618801745007858 14.6830627902060549   T   T   T
 12.4259183223553471  8.7683533524157458 14.6830627902060549   T   T   T
 10.7000963331393226  6.9748265303307067 14.6830627902060478   T   T   T
  8.9742743439233017  5.1812997082456667 14.6830627902060478   T   T   T
  7.2484523547072834  3.3877728861606276 14.6830627902060478   T   T   T
  5.5226303654912634  1.5942460640755882 14.6830627902060478   T   T   T
 20.3646994727490345 20.1273565589543253 14.6830627902060549   T   T   T
 18.6388774835330118 18.3338297368692835 14.6830627902060549   T   T   T
 16.9130554943170033 16.5403029147842489 14.6830627902060549   T   T   T
 15.1872335051009770 14.7467760926992106 14.6830627902060549   T   T   T
 13.4614115158849579 12.9532492706141706 14.6830627902060549   T   T   T
 11.7355895266689370 11.1597224485291306 14.6830627902060549   T   T   T
 10.0097675374529160  9.3661956264440924 14.6830627902060478   T   T   T
  8.2839455482368969  7.5726688043590533 14.6830627902060513   T   T   T
  6.5581235590208751  5.7791419822740133 14.6830627902060478   T   T   T
  4.8323015698048568  3.9856151601889747 14.6830627902060478   T   T   T
  3.1064795805888363  2.1920883381039356 14.6830627902060478   T   T   T
 10.3549319352961220  0.3985615160188957 14.6830627902060513   T   T   T
 16.2227266986305878 18.9316720108976284 14.6830627902060549   T   T   T
 14.4969047094145687 17.1381451888125973 14.6830627902060549   T   T   T
 12.7710827201985531 15.3446183667275537 14.6830627902060549   T   T   T
 11.0452607309825304 13.5510915446425173 14.6830627902060549   T   T   T
  9.3194387417665112 11.7575647225574791 14.6830627902060478   T   T   T
  7.5936167525504894  9.9640379004724373 14.6830627902060549   T   T   T
  5.8677947633344703  8.1705110783873991 14.6830627902060478   T   T   T
  4.1419727741184502  6.3769842563023591 14.6830627902060478   T   T   T
  2.4161507849024293  4.5834574342173209 14.6830627902060478   T   T   T
 18.6388774835330082  2.7899306121322809 14.6830627902060513   T   T   T
 16.9130554943169926  0.9964037900472411 14.6830627902060549   T   T   T
 13.8065759137281638 19.5295142849259769 14.6830627902060584   T   T   T
 12.0807539245121447 17.7359874628409422 14.6830627902060549   T   T   T
 10.3549319352961220 15.9424606407559022 14.6830627902060549   T   T   T
  8.6291099460801028 14.1489338186708657 14.6830627902060478   T   T   T
  6.9032879568640819 12.3554069965858240 14.6830627902060549   T   T   T
  5.1774659676480645 10.5618801745007858 14.6830627902060478   T   T   T
  3.4516439784320436  8.7683533524157458 14.6830627902060478   T   T   T
 19.6743706770626297  6.9748265303307075 14.6830627902060549   T   T   T
 11.3904251288257381 20.1273565589543253 14.6830627902060549   T   T   T
  9.6646031396097190 18.3338297368692942 14.6830627902060549   T   T   T
  7.9387811503936963 16.5403029147842524 14.6830627902060549   T   T   T
  6.2129591611776753 14.7467760926992106 14.6830627902060549   T   T   T
 22.4356858598082596 12.9532492706141724 14.6830627902060584   T   T   T
 20.7098638705922404 11.1597224485291306 14.6830627902060549   T   T   T
  1.3806575913728154  0.3985615160188912 14.6830627902060513   T   T   T
  7.2484523547072914 18.9316720108976355 14.6830627902060549   T   T   T
 23.4711790533378668 17.1381451888125866 14.6830627902060549   T   T   T
 18.9840418813762142  4.1848959181984231 16.7153357377535343   T   T   T
 17.2582198921601915  2.3913690961133831 16.7153357377535343   T   T   T
 15.5323979029441759  0.5978422740283438 16.7153357377535343   T   T   T
 20.0195350749058321  8.3697918363968480 16.7153357377535343   T   T   T
 18.2937130856898094  6.5762650143118107 16.7153357377535343   T   T   T
 16.5678910964737867  4.7827381922267707 16.7153357377535343   T   T   T
 14.8420691072577675  2.9892113701417311 16.7153357377535343   T   T   T
 13.1162471180417466  1.1956845480566904 16.7153357377535343   T   T   T
 22.7808502576514584 14.3482145766803129 16.7153357377535379   T   T   T
 21.0550282684354393 12.5546877545952711 16.7153357377535379   T   T   T
 19.3292062792194237 10.7611609325102346 16.7153357377535343   T   T   T
 17.6033842900034045  8.9676341104251946 16.7153357377535308   T   T   T
 15.8775623007873783  7.1741072883401555 16.7153357377535343   T   T   T
 14.1517403115713609  5.3805804662551173 16.7153357377535343   T   T   T
 12.4259183223553400  3.5870536441700778 16.7153357377535343   T   T   T
 10.7000963331393191  1.7935268220850378 16.7153357377535343   T   T   T
  8.9742743439232999 -0.0000000000000011 16.7153357377535343   T   T   T
 23.8163434511810763 18.5331104948787377 16.7153357377535414   T   T   T
 22.0905214619650536 16.7395836727936960 16.7153357377535379   T   T   T
 20.3646994727490345 14.9460568507086577 16.7153357377535379   T   T   T
 18.6388774835330082 13.1525300286236213 16.7153357377535343   T   T   T
 16.9130554943169926 11.3590032065385778 16.7153357377535343   T   T   T
 15.1872335051009717  9.5654763844535413 16.7153357377535343   T   T   T
 13.4614115158849543  7.7719495623685031 16.7153357377535343   T   T   T
 11.7355895266689334  5.9784227402834640 16.7153357377535343   T   T   T
 10.0097675374529143  4.1848959181984231 16.7153357377535343   T   T   T
  8.2839455482368951  2.3913690961133840 16.7153357377535343   T   T   T
  6.5581235590208742  0.5978422740283434 16.7153357377535343   T   T   T
 21.4001926662786452 19.1309527689070826 16.7153357377535379   T   T   T
 19.6743706770626261 17.3374259468220444 16.7153357377535414   T   T   T
 17.9485486878466105 15.5438991247370026 16.7153357377535343   T   T   T
 16.2227266986305914 13.7503723026519662 16.7153357377535343   T   T   T
 14.4969047094145651 11.9568454805669244 16.7153357377535343   T   T   T
 12.7710827201985495 10.1633186584818880 16.7153357377535343   T   T   T
 11.0452607309825268  8.3697918363968480 16.7153357377535343   T   T   T
  9.3194387417665077  6.5762650143118107 16.7153357377535343   T   T   T
  7.5936167525504867  4.7827381922267707 16.7153357377535343   T   T   T
  5.8677947633344676  2.9892113701417307 16.7153357377535343   T   T   T
  4.1419727741184467  1.1956845480566904 16.7153357377535343   T   T   T
 18.9840418813762213 19.7287950429354311 16.7153357377535379   T   T   T
 17.2582198921602021 17.9352682208503893 16.7153357377535414   T   T   T
 15.5323979029441830 16.1417413987653511 16.7153357377535379   T   T   T
 13.8065759137281585 14.3482145766803111 16.7153357377535343   T   T   T
 12.0807539245121411 12.5546877545952711 16.7153357377535343   T   T   T
 10.3549319352961184 10.7611609325102346 16.7153357377535379   T   T   T
  8.6291099460800993  8.9676341104251946 16.7153357377535343   T   T   T
  6.9032879568640793  7.1741072883401555 16.7153357377535343   T   T   T
  5.1774659676480610  5.3805804662551155 16.7153357377535343   T   T   T
  3.4516439784320401  3.5870536441700760 16.7153357377535308   T   T   T
  1.7258219892160191  1.7935268220850373 16.7153357377535343   T   T   T
  0.0000000000000002 -0.0000000000000007 16.7153357377535308   T   T   T
 14.8420691072577746 18.5331104948787413 16.7153357377535379   T   T   T
 13.1162471180417519 16.7395836727936995 16.7153357377535343   T   T   T
 11.3904251288257363 14.9460568507086577 16.7153357377535343   T   T   T
  9.6646031396097136 13.1525300286236213 16.7153357377535343   T   T   T
  7.9387811503936927 11.3590032065385813 16.7153357377535343   T   T   T
  6.2129591611776727  9.5654763844535395 16.7153357377535343   T   T   T
  4.4871371719616544  7.7719495623685022 16.7153357377535343   T   T   T
  2.7613151827456330  5.9784227402834613 16.7153357377535343   T   T   T
 12.4259183223553435 19.1309527689070826 16.7153357377535343   T   T   T
 10.7000963331393280 17.3374259468220409 16.7153357377535343   T   T   T
  8.9742743439233053 15.5438991247370044 16.7153357377535343   T   T   T
  7.2484523547072870 13.7503723026519662 16.7153357377535343   T   T   T
  5.5226303654912652 11.9568454805669280 16.7153357377535343   T   T   T
  3.7968083762752460 10.1633186584818862 16.7153357377535343   T   T   T
 10.0097675374529196 19.7287950429354346 16.7153357377535343   T   T   T
  8.2839455482368987 17.9352682208503929 16.7153357377535343   T   T   T
  6.5581235590208786 16.1417413987653511 16.7153357377535379   T   T   T
 12.8962174150511792 16.8080870167640484 25.9166631763082620   T   T   T
 11.3774940645410787 12.7427595533712932 25.9166631763082620   T   T   T
  9.8587707140309799  8.6774320899785344 25.9166631763082620   T   T   T
  8.3400473635208812  4.6121046265857792 25.9166631763082584   T   T   T
 14.4149407655612762 20.8734144801568036 25.9166631763082620   T   T   T
  8.0339933470430474 15.2079271927142763 27.5555506853332446   T   T   T
  6.5152699965329495 11.1425997293215229 27.5555506853332446   T   T   T
  4.9965466460228516  7.0772722659287668 27.5555506853332410   T   T   T
  3.4778232955127524  3.0119448025360098 27.5555506853332446   T   T   T
  9.5527166975531461 19.2732546561070315 27.5555506853332446   T   T   T
 11.9372434633353279 16.0171807914879487 27.1097732828784501   T   T   T
 10.4185201128252309 11.9518533280951953 27.1097732828784466   T   T   T
  8.8997967623151304  7.8865258647024357 27.1097732828784501   T   T   T
  7.3810734118050316  3.8211984013096800 27.1097732828784466   T   T   T
 13.4559668138454267 20.0825082548807039 27.1097732828784466   T   T   T
  8.3344969319775526 18.5832311312009146 26.5634774465367940   T   T   T
  6.8157735814674547 14.5179036678081612 26.5634774465367833   T   T   T
  5.2970502309573559 10.4525762044154042 26.5634774465367833   T   T   T
  3.7783268804472563  6.3872487410226464 26.5634774465367833   T   T   T
  9.8532202824876514 22.6485585945936698 26.5634774465367904   T   T   T
 19.3423488025116761  9.6433226056417354 27.0092548489915814   T   T   T
 17.8236254520015791  5.5779951422489811 27.0092548489915849   T   T   T
 23.8985188540419706 21.8393049958199974 27.0092548489915849   T   T   T
 22.3797955035318772 17.7739775324272458 27.0092548489915849   T   T   T
 20.8610721530217766 13.7086500690344923 27.0092548489915885   T   T   T
 15.2807441808333540 13.5520131521449638 25.4708857738534675   T   T   T
 13.7620208303232552  9.4866856887522069 25.4708857738534675   T   T   T
 12.2432974798131564  5.4213582253594517 25.4708857738534675   T   T   T
 18.3181908818535462 21.6826680789304653 25.4708857738534711   T   T   T
 16.7994675313434527 17.6173406155377172 25.4708857738534711   T   T   T
 18.8834907121911293 10.9859628124319944 26.0171816101951237   T   T   T
 17.3647673616810323  6.9206353490392400 26.0171816101951343   T   T   T
 23.4396607637214274 23.1819452026102617 26.0171816101951272   T   T   T
 21.9209374132113268 19.1166177392175030 26.0171816101951272   T   T   T
 20.4022140627012298 15.0512902758247495 26.0171816101951272   T   T   T
 16.4989639464089564 14.2420366770510771 26.4629590126499252   T   T   T
 14.9802405958988594 10.1767092136583219 26.4629590126499252   T   T   T
 13.4615172453887588  6.1113817502655650 26.4629590126499252   T   T   T
 19.5364106474291503 22.3726916038365857 26.4629590126499288   T   T   T
 18.0176872969190534 18.3073641404438305 26.4629590126499288   T   T   T
 13.3963332764464838 18.9416334488304052 23.7314798309416233   T   T   T
 11.8776099259363832 14.8763059854376483 23.7314798309416233   T   T   T
 10.3588865754262862 10.8109785220448931 23.7314798309416197   T   T   T
  8.8401632249161874  6.7456510586521388 23.7314798309416197   T   T   T
 14.9150566269565807 23.0069609122231569 23.7314798309416233   T   T   T
  8.5341092084383519 17.3414736247806367 25.3703673399666023   T   T   T
  7.0153858579282531 13.2761461613878833 25.3703673399666023   T   T   T
  5.4966625074181543  9.2108186979951245 25.3703673399666023   T   T   T
  3.9779391569080564  5.1454912346023702 25.3703673399665988   T   T   T
 10.0528325589484488 21.4068010881733919 25.3703673399666023   T   T   T
 12.4373593247306289 18.1507272235543056 24.9245899375118114   T   T   T
 10.9186359742205319 14.0853997601615539 24.9245899375118078   T   T   T
  9.3999126237104331 10.0200722967687952 24.9245899375118078   T   T   T
  7.8811892732003344  5.9547448333760391 24.9245899375118078   T   T   T
 13.9560826752407259 22.2160546869470608 24.9245899375118078   T   T   T
  8.8346127933728553 20.7167775632672715 24.3782941011701482   T   T   T
  7.3158894428627566 16.6514500998745163 24.3782941011701482   T   T   T
  5.7971660923526596 12.5861226364817647 24.3782941011701446   T   T   T
  4.2784427418425599  8.5207951730890077 24.3782941011701446   T   T   T
 10.3533361438829523 24.7821050266600267 24.3782941011701446   T   T   T
 19.8424646639069806 11.7768690377080922 24.8240715036249391   T   T   T
 18.3237413133968801  7.7115415743153388 24.8240715036249391   T   T   T
 24.3986347154372751 23.9728514278863614 24.8240715036249391   T   T   T
 22.8799113649271781 19.9075239644936062 24.8240715036249426   T   T   T
 21.3611880144170776 15.8421965011008474 24.8240715036249426   T   T   T
 15.7808600422286567 15.6855595842113189 23.2857024284868288   T   T   T
 14.2621366917185597 11.6202321208185637 23.2857024284868288   T   T   T
 12.7434133412084609  7.5549046574258094 23.2857024284868217   T   T   T
 18.8183067432488542 23.8162145109968257 23.2857024284868324   T   T   T
 17.2995833927387572 19.7508870476040741 23.2857024284868324   T   T   T
 19.3836065735864338 13.1195092444983548 23.8319982648284849   T   T   T
 17.8648832230763368  9.0541817811055996 23.8319982648284885   T   T   T
 23.9397766251167283 25.3154916346766186 23.8319982648284885   T   T   T
 22.4210532746066313 21.2501641712838634 23.8319982648284885   T   T   T
 20.9023299240965343 17.1848367078911082 23.8319982648284920   T   T   T
 16.9990798078042609 16.3755831091174393 24.2777756672832794   T   T   T
 15.4803564572941621 12.3102556457246823 24.2777756672832794   T   T   T
 13.9616331067840616  8.2449281823319254 24.2777756672832794   T   T   T
 20.0365265088244584 24.5062380359029461 24.2777756672832865   T   T   T
 18.5178031583143579 20.4409105725101909 24.2777756672832830   T   T   T
 13.8964491378417847 21.0751798808967656 21.5462964855749775   T   T   T
 12.3777257873316859 17.0098524175040104 21.5462964855749810   T   T   T
 10.8590024368215872 12.9445249541112517 21.5462964855749775   T   T   T
  9.3402790863114902  8.8791974907184983 21.5462964855749775   T   T   T
 15.4151724883518835 25.1405073442895173 21.5462964855749810   T   T   T
  9.0342250698336564 19.4750200568469971 23.1851839945999636   T   T   T
  7.5155017193235567 15.4096925934542401 23.1851839945999636   T   T   T
  5.9967783688134579 11.3443651300614867 23.1851839945999565   T   T   T
  4.4780550183033583  7.2790376666687289 23.1851839945999565   T   T   T
 10.5529484203437534 23.5403475202397523 23.1851839945999636   T   T   T
 12.9374751861259334 20.2842736556206660 22.7394065921451620   T   T   T
 11.4187518356158364 16.2189461922279143 22.7394065921451620   T   T   T
  9.9000284851057376 12.1536187288351538 22.7394065921451656   T   T   T
  8.3813051345956389  8.0882912654423986 22.7394065921451620   T   T   T
 14.4561985366360339 24.3496011190134212 22.7394065921451656   T   T   T
  9.3347286547681598 22.8503239953336319 22.1931107558035023   T   T   T
  7.8160053042580611 18.7849965319408803 22.1931107558035059   T   T   T
  6.2972819537479623 14.7196690685481215 22.1931107558035023   T   T   T
  4.7785586032378635 10.6543416051553681 22.1931107558035023   T   T   T
 10.8534520052782586 26.9156514587263871 22.1931107558035059   T   T   T
 20.3425805253022851 13.9104154697744526 22.6388881582582968   T   T   T
 18.8238571747921881  9.8450880063817028 22.6388881582582933   T   T   T
 24.8987505768325796 26.1063978599527182 22.6388881582582968   T   T   T
 23.3800272263224826 22.0410703965599666 22.6388881582582968   T   T   T
 21.8613038758123857 17.9757429331672114 22.6388881582583004   T   T   T
 16.2809759036239612 17.8191060162776829 21.1005190831201830   T   T   T
 14.7622525531138642 13.7537785528849259 21.1005190831201830   T   T   T
 13.2435292026037654  9.6884510894921707 21.1005190831201830   T   T   T
 19.3184226046441552 25.9497609430631861 21.1005190831201865   T   T   T
 17.7996992541340617 21.8844334796704381 21.1005190831201865   T   T   T
 19.8837224349817383 15.2530556765647152 21.6468149194618462   T   T   T
 18.3649990844716413 11.1877282131719600 21.6468149194618462   T   T   T
 24.4398924865120328 27.4490380667429790 21.6468149194618462   T   T   T
 22.9211691360019358 23.3837106033502238 21.6468149194618462   T   T   T
 21.4024457854918353 19.3183831399574686 21.6468149194618462   T   T   T
 17.4991956691995618 18.5091295411837962 22.0925923219166407   T   T   T
 15.9804723186894631 14.4438020777910410 22.0925923219166371   T   T   T
 14.4617489681793643 10.3784746143982840 22.0925923219166371   T   T   T
 20.5366423702197594 26.6397844679693065 22.0925923219166442   T   T   T
 19.0179190197096588 22.5744570045765514 22.0925923219166407   T   T   T
 14.3965649992370892 23.2087263129631296 19.3611131402083352   T   T   T
 12.8778416487269904 19.1433988495703744 19.3611131402083316   T   T   T
 11.3591182982168917 15.0780713861776174 19.3611131402083316   T   T   T
  9.8403949477067911 11.0127439227848569 19.3611131402083316   T   T   T
 15.9152883497471862 27.2740537763558848 19.3611131402083352   T   T   T
  9.5343409312289573 21.6085664889133504 21.0000006492333178   T   T   T
  8.0156175807188603 17.5432390255205988 21.0000006492333213   T   T   T
  6.4968942302087607 13.4779115621278436 21.0000006492333178   T   T   T
  4.9781708796986628  9.4125840987350866 21.0000006492333213   T   T   T
 11.0530642817390579 25.6738939523061127 21.0000006492333178   T   T   T
 13.4375910475212343 22.4178200876870193 20.5542232467785304   T   T   T
 11.9188676970111374 18.3524926242942712 20.5542232467785198   T   T   T
 10.4001443465010404 14.2871651609015160 20.5542232467785198   T   T   T
  8.8814209959909416 10.2218376975087608 20.5542232467785198   T   T   T
 14.9563143980313349 26.4831475510797816 20.5542232467785233   T   T   T
  9.8348445161634608 24.9838704273999923 20.0079274104368601   T   T   T
  8.3161211656533656 20.9185429640072407 20.0079274104368601   T   T   T
  6.7973978151432659 16.8532155006144819 20.0079274104368601   T   T   T
  5.2786744646331680 12.7878880372217285 20.0079274104368601   T   T   T
 11.3535678666735595 29.0491978907927475 20.0079274104368636   T   T   T
 20.8426963866975861 16.0439619018408131 20.4537048128916545   T   T   T
 19.3239730361874891 11.9786344384480596 20.4537048128916510   T   T   T
 25.3988664382278841 28.2399442920190786 20.4537048128916545   T   T   T
 23.8801430877177836 24.1746168286263234 20.4537048128916545   T   T   T
 22.3614197372076866 20.1092893652335682 20.4537048128916545   T   T   T
 16.7810917650192692 19.9526524483440433 18.9153357377535443   T   T   T
 15.2623684145091687 15.8873249849512828 18.9153357377535407   T   T   T
 13.7436450639990682 11.8219975215585240 18.9153357377535407   T   T   T
 19.8185384660394632 28.0833073751295466 18.9153357377535478   T   T   T
 18.2998151155293627 24.0179799117367949 18.9153357377535478   T   T   T
 20.3838382963770428 17.3866021086310703 19.4616315740952039   T   T   T
 18.8651149458669458 13.3212746452383186 19.4616315740952004   T   T   T
 24.9400083479073373 29.5825844988093358 19.4616315740952039   T   T   T
 23.4212849973972439 25.5172570354165842 19.4616315740952039   T   T   T
 21.9025616468871434 21.4519295720238254 19.4616315740952039   T   T   T
 17.9993115305948628 20.6426759732501530 19.9074089765500020   T   T   T
 16.4805881800847658 16.5773485098574014 19.9074089765499949   T   T   T
 14.9618648295746688 12.5120210464646462 19.9074089765499913   T   T   T
 21.0367582316150639 28.7733309000356705 19.9074089765499984   T   T   T
 19.5180348811049633 24.7080034366429118 19.9074089765499949   T   T   T
 15.2849561815255406 15.8785352000825792 25.5779597577764335   T   T   T
 13.7662328310154418 11.8132077366898240 25.5779597577764299   T   T   T
 12.2475094805053430  7.7478802732970662 25.5779597577764299   T   T   T
 18.3224028825457346 24.0091901268680843 25.5779597577764335   T   T   T
 16.8036795320356376 19.9438626634753362 25.5779597577764370   T   T   T
 10.4227321135174158 14.2783753760328107 27.2168472668014090   T   T   T
  8.9040087630073153 10.2130479126400537 27.2168472668014161   T   T   T
  7.3852854124972165  6.1477204492472959 27.2168472668014161   T   T   T
 13.4601788145376098 22.4090303028183158 27.2168472668014196   T   T   T
 11.9414554640275128 18.3437028394255641 27.2168472668014090   T   T   T
  9.5485046968609630 16.9467326081694196 27.4484767014102786   T   T   T
  8.0297813463508643 12.8814051447766627 27.4484767014102786   T   T   T
  6.5110579958407655  8.8160776813839057 27.4484767014102786   T   T   T
  4.9923346453306667  4.7507502179911487 27.4484767014102786   T   T   T
 11.0672280473710600 21.0120600715621713 27.4484767014102786   T   T   T
 20.8568601523295953 11.3821280210968734 26.9021808650686189   T   T   T
 19.3381368018194948  7.3168005577041191 26.9021808650686189   T   T   T
 17.8194134513093978  3.2514730943113590 26.9021808650686189   T   T   T
 23.8943068533497893 19.5127829478823820 26.9021808650686225   T   T   T
 22.3755835028396923 15.4474554844896286 26.9021808650686225   T   T   T
  6.8199855821596378 16.8444257157457784 26.6705514304597529   T   T   T
  5.3012622316495399 12.7790982523530214 26.6705514304597529   T   T   T
  3.7825388811394407  8.7137707889602662 26.6705514304597493   T   T   T
  2.2638155306293419  4.6484433255675102 26.6705514304597493   T   T   T
  8.3387089326697357 20.9097531791385300 26.6705514304597529   T   T   T
 12.8920054143589944 14.4815649688264330 25.8095891923852889   T   T   T
 11.3732820638488938 10.4162375054336742 25.8095891923852996   T   T   T
  9.8545587133387951  6.3509100420409190 25.8095891923852960   T   T   T
 15.9294521153791884 22.6122198956119398 25.8095891923852996   T   T   T
 14.4107287648690914 18.5468924322191846 25.8095891923852996   T   T   T
 16.4947519457167644 11.9155146291134635 26.3558850287269593   T   T   T
 14.9760285952066674  7.8501871657207092 26.3558850287269593   T   T   T
 13.4573052446965686  3.7848597023279527 26.3558850287269593   T   T   T
 19.5321986467369619 20.0461695558989739 26.3558850287269628   T   T   T
 18.0134752962268649 15.9808420925062187 26.3558850287269628   T   T   T
 18.8877027128833177 13.3124848603696098 26.1242555941180932   T   T   T
 17.3689793623732207  9.2471573969768563 26.1242555941180896   T   T   T
 15.8502560118631202  5.1818299335840976 26.1242555941180932   T   T   T
 21.9251494139035152 21.4431397871551219 26.1242555941180932   T   T   T
 20.4064260633934182 17.3778123237623667 26.1242555941180932   T   T   T
 15.7850720429208433 18.0120816321489343 23.3927764124097912   T   T   T
 14.2663486924107445 13.9467541687561809 23.3927764124097912   T   T   T
 12.7476253419006476  9.8814267053634275 23.3927764124097877   T   T   T
 18.8225187439410426 26.1427365589344554 23.3927764124097912   T   T   T
 17.3037953934309421 22.0774090955416895 23.3927764124097912   T   T   T
 10.9228479749127168 16.4119218080991693 25.0316639214347738   T   T   T
  9.4041246244026198 12.3465943447064141 25.0316639214347738   T   T   T
  7.8854012738925192  8.2812668813136572 25.0316639214347703   T   T   T
 13.9602946759329125 24.5425767348846762 25.0316639214347738   T   T   T
 12.4415713254228137 20.4772492714919210 25.0316639214347738   T   T   T
 10.0486205582562658 19.0802790402357765 25.2632933560436399   T   T   T
  8.5298972077461670 15.0149515768430213 25.2632933560436399   T   T   T
  7.0111738572360682 10.9496241134502643 25.2632933560436399   T   T   T
  5.4924505067259703  6.8842966500575091 25.2632933560436328   T   T   T
 11.5673439087663610 23.1456065036285281 25.2632933560436328   T   T   T
 21.3569760137248963 13.5156744531632302 24.7169975197019802   T   T   T
 19.8382526632147957  9.4503469897704768 24.7169975197019731   T   T   T
 18.3195293127046988  5.3850195263777199 24.7169975197019767   T   T   T
 24.3944227147450903 21.6463293799487388 24.7169975197019767   T   T   T
 22.8756993642349968 17.5810019165559908 24.7169975197019802   T   T   T
  7.3201014435549405 18.9779721478121388 24.4853680850931070   T   T   T
  5.8013780930448426 14.9126446844193818 24.4853680850931141   T   T   T
  4.2826547425347439 10.8473172210266231 24.4853680850931141   T   T   T
  2.7639313920246451  6.7819897576338688 24.4853680850931070   T   T   T
  8.8388247940650402 23.0432996112048940 24.4853680850931141   T   T   T
 13.3921212757542953 16.6151114008927898 23.6244058470186538   T   T   T
 11.8733979252441983 12.5497839375000346 23.6244058470186538   T   T   T
 10.3546745747340996  8.4844564741072759 23.6244058470186538   T   T   T
 16.4295679767744964 24.7457663276783038 23.6244058470186538   T   T   T
 14.9108446262643959 20.6804388642855450 23.6244058470186573   T   T   T
 16.9948678071120689 14.0490610611798239 24.1707016833603170   T   T   T
 15.4761444566019684  9.9837335977870687 24.1707016833603170   T   T   T
 13.9574211060918696  5.9184061343943117 24.1707016833603134   T   T   T
 20.0323145081322664 22.1797159879653378 24.1707016833603170   T   T   T
 18.5135911576221659 18.1143885245725791 24.1707016833603205   T   T   T
 19.3878185742786222 15.4460312924359702 23.9390722487514509   T   T   T
 17.8690952237685252 11.3807038290432150 23.9390722487514473   T   T   T
 16.3503718732584247  7.3153763656504580 23.9390722487514473   T   T   T
 22.4252652752988197 23.5766862192214823 23.9390722487514509   T   T   T
 20.9065419247887192 19.5113587558287236 23.9390722487514509   T   T   T
 16.2851879043161460 20.1456280642152947 21.2075930670431561   T   T   T
 14.7664645538060491 16.0803006008225466 21.2075930670431454   T   T   T
 13.2477412032959485 12.0149731374297861 21.2075930670431454   T   T   T
 19.3226346053363471 28.2762829910008158 21.2075930670431489   T   T   T
 17.8039112548262466 24.2109555276080570 21.2075930670431489   T   T   T
 11.4229638363080213 18.5454682401655297 22.8464805760681315   T   T   T
  9.9042404857979243 14.4801407767727728 22.8464805760681315   T   T   T
  8.3855171352878219 10.4148133133800140 22.8464805760681280   T   T   T
 14.4604105373282170 26.6761231669510366 22.8464805760681315   T   T   T
 12.9416871868181165 22.6107957035582778 22.8464805760681280   T   T   T
 10.5487364196515685 21.2138254723021369 23.0781100106769941   T   T   T
  9.0300130691414715 17.1484980089093817 23.0781100106769941   T   T   T
  7.5112897186313710 13.0831705455166247 23.0781100106769941   T   T   T
  5.9925663681212740  9.0178430821238695 23.0781100106769941   T   T   T
 12.0674597701616673 25.2791529356948921 23.0781100106769905   T   T   T
 21.8570918751201972 15.6492208852295906 22.5318141743353415   T   T   T
 20.3383685246101003 11.5838934218368372 22.5318141743353273   T   T   T
 18.8196451740999997  7.5185659584440803 22.5318141743353273   T   T   T
 24.8945385761403948 23.7798758120151064 22.5318141743353308   T   T   T
 23.3758152256302978 19.7145483486223512 22.5318141743353344   T   T   T
  7.8202173049502441 21.1115185798784957 22.3001847397264683   T   T   T
  6.3014939544401471 17.0461911164857440 22.3001847397264683   T   T   T
  4.7827706039300493 12.9808636530929871 22.3001847397264683   T   T   T
  3.2640472534199483  8.9155361897002283 22.3001847397264683   T   T   T
  9.3389406554603429 25.1768460432712509 22.3001847397264683   T   T   T
 13.8922371371495998 18.7486578329591502 21.4392225016520115   T   T   T
 12.3735137866395011 14.6833303695663950 21.4392225016520079   T   T   T
 10.8547904361294023 10.6180029061736363 21.4392225016520115   T   T   T
 16.9296838381697938 26.8793127597446606 21.4392225016520115   T   T   T
 15.4109604876596986 22.8139852963519054 21.4392225016520150   T   T   T
 17.4949836685073734 16.1826074932461843 21.9855183379936747   T   T   T
 15.9762603179972729 12.1172800298534273 21.9855183379936747   T   T   T
 14.4575369674871741  8.0519525664606704 21.9855183379936712   T   T   T
 20.5324303695275674 24.3132624200316982 21.9855183379936747   T   T   T
 19.0137070190174704 20.2479349566389395 21.9855183379936747   T   T   T
 19.8879344356739232 17.5795777245023288 21.7538889033848122   T   T   T
 18.3692110851638262 13.5142502611095736 21.7538889033848086   T   T   T
 16.8504877346537292  9.4489227977168184 21.7538889033848086   T   T   T
 22.9253811366941207 25.7102326512878392 21.7538889033848157   T   T   T
 21.4066577861840202 21.6449051878950840 21.7538889033848122   T   T   T
 16.7853037657114541 22.2791744962816551 19.0224097216765102   T   T   T
 15.2665804152013536 18.2138470328888964 19.0224097216765067   T   T   T
 13.7478570646912566 14.1485195694961465 19.0224097216765067   T   T   T
 19.8227504667316516 30.4098294230671655 19.0224097216765138   T   T   T
 18.3040271162215546 26.3445019596744103 19.0224097216765102   T   T   T
 11.9230796977033222 20.6790146722318902 20.6612972307014857   T   T   T
 10.4043563471932252 16.6136872088391350 20.6612972307014857   T   T   T
  8.8856329966831247 12.5483597454463744 20.6612972307014857   T   T   T
 14.9605263987235197 28.8096695990173970 20.6612972307014928   T   T   T
 13.4418030482134210 24.7443421356246418 20.6612972307014893   T   T   T
 11.0488522810468730 23.3473719043684973 20.8929266653103483   T   T   T
  9.5301289305367742 19.2820444409757386 20.8929266653103518   T   T   T
  8.0114055800266755 15.2167169775829851 20.8929266653103483   T   T   T
  6.4926822295165767 11.1513895141902282 20.8929266653103483   T   T   T
 12.5675756315569700 27.4126993677612489 20.8929266653103518   T   T   T
 22.3572077365155018 17.7827673172959493 20.3466308289686957   T   T   T
 20.8384843860054048 13.7174398539031976 20.3466308289686921   T   T   T
 19.3197610354953042  9.6521123905104389 20.3466308289686921   T   T   T
 25.3946544375356993 25.9134222440814597 20.3466308289686992   T   T   T
 23.8759310870255987 21.8480947806887116 20.3466308289686921   T   T   T
  8.3203331663455486 23.2450650119448561 20.1150013943598260   T   T   T
  6.8016098158354508 19.1797375485521044 20.1150013943598260   T   T   T
  5.2828864653253502 15.1144100851593439 20.1150013943598260   T   T   T
  3.7641631148152528 11.0490826217665905 20.1150013943598260   T   T   T
  9.8390565168556456 27.3103924753376113 20.1150013943598260   T   T   T
 14.3923529985449008 20.8822042650255071 19.2540391562853657   T   T   T
 12.8736296480348038 16.8168768016327554 19.2540391562853657   T   T   T
 11.3549062975247033 12.7515493382399967 19.2540391562853657   T   T   T
 17.4297996995651019 29.0128591918110210 19.2540391562853692   T   T   T
 15.9110763490550013 24.9475317284182658 19.2540391562853692   T   T   T
 17.9950995299026744 18.3161539253125447 19.8003349926270289   T   T   T
 16.4763761793925774 14.2508264619197931 19.8003349926270253   T   T   T
 14.9576528288824804 10.1854989985270361 19.8003349926270253   T   T   T
 21.0325462309228755 26.4468088520980587 19.8003349926270289   T   T   T
 19.5138228804127749 22.3814813887053070 19.8003349926270289   T   T   T
 20.3880502970692312 19.7131241565686892 19.5687055580181699   T   T   T
 18.8693269465591342 15.6477966931759340 19.5687055580181699   T   T   T
 17.3506035960490337 11.5824692297831788 19.5687055580181664   T   T   T
 23.4254969980894288 27.8437790833542032 19.5687055580181699   T   T   T
 21.9067736475793282 23.7784516199614444 19.5687055580181699   T   T   T
 12.2957903148923009 12.3544526114375923 29.8555506853332453   T   T   T
 12.2957903148923009 14.7544526114375909 29.8555506853332453   T   T   T
 14.6957903148922995 12.3544526114375923 29.8555506853332453   T   T   T
 14.6957903148922995 14.7544526114375909 29.8555506853332453   T   T   T
