Ni Mo N  Ru
 1.0000000000000000
    17.2444077891935734    0.0000000000000000    0.0000000000000011
     8.6222038945967832   14.9340952186598841    0.0000000000000011
     0.0000000000000000    0.0000000000000000   37.7533426292879568
 Ni  Mo  N   Ru 
 192 120  60   4
Selective dynamics
Cartesian
 23.7110607101411617 13.6895872837715586 10.0000000000000053   F   F   F
 21.5555097364919668  9.9560634791065912 10.0000000000000053   F   F   F
 21.5555097364919703 12.4450793488832403 10.0000000000000089   F   F   F
 19.3999587628427754  6.2225396744416210 10.0000000000000053   F   F   F
 19.3999587628427754  8.7115555442182675 10.0000000000000053   F   F   F
 19.3999587628427719 11.2005714139949166 10.0000000000000053   F   F   F
 19.3999587628427719 13.6895872837715658 10.0000000000000089   F   F   F
 17.2444077891935770  2.4890158697766482 10.0000000000000053   F   F   F
 17.2444077891935770  4.9780317395532938 10.0000000000000053   F   F   F
 17.2444077891935734  7.4670476093299420 10.0000000000000089   F   F   F
 17.2444077891935734  9.9560634791065912 10.0000000000000053   F   F   F
 17.2444077891935699 12.4450793488832367 10.0000000000000053   F   F   F
 15.0888568155443767  1.2445079348883235 10.0000000000000053   F   F   F
 15.0888568155443750  3.7335238046649692 10.0000000000000053   F   F   F
 15.0888568155443803  6.2225396744416166 10.0000000000000053   F   F   F
 15.0888568155443750  8.7115555442182675 10.0000000000000089   F   F   F
 15.0888568155443750 11.2005714139949148 10.0000000000000089   F   F   F
 15.0888568155443714 13.6895872837715586 10.0000000000000053   F   F   F
 12.9333058418951801  0.0000000000000008 10.0000000000000053   F   F   F
 12.9333058418951836  2.4890158697766478 10.0000000000000018   F   F   F
 12.9333058418951801  4.9780317395532956 10.0000000000000089   F   F   F
 12.9333058418951818  7.4670476093299420 10.0000000000000053   F   F   F
 12.9333058418951783  9.9560634791065912 10.0000000000000053   F   F   F
 12.9333058418951783 12.4450793488832367 10.0000000000000053   F   F   F
 10.7777548682459852  1.2445079348883226 10.0000000000000053   F   F   F
 10.7777548682459869  3.7335238046649728 10.0000000000000053   F   F   F
 10.7777548682459852  6.2225396744416210 10.0000000000000053   F   F   F
 10.7777548682459834  8.7115555442182675 10.0000000000000089   F   F   F
 10.7777548682459852 11.2005714139949131 10.0000000000000053   F   F   F
 10.7777548682459816 13.6895872837715622 10.0000000000000089   F   F   F
  8.6222038945967867  0.0000000000000008 10.0000000000000053   F   F   F
  8.6222038945967867  2.4890158697766478 10.0000000000000053   F   F   F
  8.6222038945967867  4.9780317395532947 10.0000000000000053   F   F   F
  8.6222038945967867  7.4670476093299456 10.0000000000000053   F   F   F
  8.6222038945967849  9.9560634791065912 10.0000000000000053   F   F   F
  8.6222038945967832 12.4450793488832350 10.0000000000000053   F   F   F
  6.4666529209475909  1.2445079348883241 10.0000000000000053   F   F   F
  6.4666529209475900  3.7335238046649728 10.0000000000000053   F   F   F
  6.4666529209475900  6.2225396744416184 10.0000000000000053   F   F   F
  6.4666529209475865  8.7115555442182639 10.0000000000000053   F   F   F
  6.4666529209475874 11.2005714139949131 10.0000000000000053   F   F   F
  4.3111019472983934  0.0000000000000012 10.0000000000000053   F   F   F
  4.3111019472983934  2.4890158697766478 10.0000000000000053   F   F   F
  4.3111019472983934  4.9780317395532965 10.0000000000000053   F   F   F
  4.3111019472983907  7.4670476093299420 10.0000000000000053   F   F   F
  2.1555509736491967  1.2445079348883241 10.0000000000000053   F   F   F
  2.1555509736491962  3.7335238046649719 10.0000000000000053   F   F   F
  0.0000000000000001  0.0000000000000002 10.0000000000000053   F   F   F
 14.3703398243279779  0.0000000000000000 12.0322729475474919   F   F   F
 20.8369927452755697 11.2005714139949166 12.0322729475474919   F   F   F
 20.8369927452755732 13.6895872837715640 12.0322729475474919   F   F   F
 18.6814417716263712  7.4670476093299412 12.0322729475474919   F   F   F
 18.6814417716263748  9.9560634791065876 12.0322729475474883   F   F   F
 18.6814417716263712 12.4450793488832385 12.0322729475474883   F   F   F
 10.0592378770295916  0.0000000000000025 12.0322729475474919   F   F   F
 16.5258907979771763  3.7335238046649692 12.0322729475474883   F   F   F
 16.5258907979771728  6.2225396744416175 12.0322729475474883   F   F   F
 16.5258907979771763  8.7115555442182657 12.0322729475474883   F   F   F
 16.5258907979771728 11.2005714139949131 12.0322729475474883   F   F   F
 16.5258907979771728 13.6895872837715586 12.0322729475474883   F   F   F
 14.3703398243279814  2.4890158697766482 12.0322729475474919   F   F   F
 14.3703398243279779  4.9780317395532938 12.0322729475474883   F   F   F
 14.3703398243279779  7.4670476093299420 12.0322729475474883   F   F   F
 14.3703398243279779  9.9560634791065930 12.0322729475474919   F   F   F
 14.3703398243279743 12.4450793488832350 12.0322729475474919   F   F   F
 14.3703398243279743 14.9340952186598805 12.0322729475474883   F   F   F
 12.2147888506787829  1.2445079348883235 12.0322729475474883   F   F   F
 12.2147888506787829  3.7335238046649710 12.0322729475474883   F   F   F
 12.2147888506787829  6.2225396744416166 12.0322729475474883   F   F   F
 12.2147888506787794  8.7115555442182657 12.0322729475474883   F   F   F
 12.2147888506787794 11.2005714139949148 12.0322729475474883   F   F   F
 12.2147888506787794 13.6895872837715604 12.0322729475474883   F   F   F
 10.0592378770295827  2.4890158697766460 12.0322729475474883   F   F   F
 10.0592378770295880  4.9780317395532956 12.0322729475474883   F   F   F
 10.0592378770295845  7.4670476093299412 12.0322729475474883   F   F   F
 10.0592378770295809  9.9560634791065876 12.0322729475474883   F   F   F
 10.0592378770295845 12.4450793488832367 12.0322729475474883   F   F   F
  1.4370339824327989  0.0000000000000000 12.0322729475474919   F   F   F
  7.9036869033803878  1.2445079348883226 12.0322729475474883   F   F   F
  7.9036869033803869  3.7335238046649697 12.0322729475474883   F   F   F
  7.9036869033803878  6.2225396744416193 12.0322729475474883   F   F   F
  7.9036869033803878  8.7115555442182675 12.0322729475474919   F   F   F
  7.9036869033803852 11.2005714139949131 12.0322729475474883   F   F   F
  7.9036869033803834 13.6895872837715604 12.0322729475474883   F   F   F
  5.7481359297311911  2.4890158697766482 12.0322729475474883   F   F   F
  5.7481359297311894  4.9780317395532947 12.0322729475474883   F   F   F
  5.7481359297311911  7.4670476093299456 12.0322729475474919   F   F   F
  5.7481359297311876  9.9560634791065894 12.0322729475474883   F   F   F
 22.9925437189247610 12.4450793488832350 12.0322729475474883   F   F   F
  3.5925849560819945  1.2445079348883239 12.0322729475474883   F   F   F
  3.5925849560819936  3.7335238046649706 12.0322729475474883   F   F   F
  3.5925849560819927  6.2225396744416175 12.0322729475474883   F   F   F
 20.8369927452755697  8.7115555442182675 12.0322729475474883   F   F   F
  1.4370339824327976  2.4890158697766478 12.0322729475474919   F   F   F
 18.6814417716263712  4.9780317395532947 12.0322729475474883   F   F   F
 16.5258907979771728  1.2445079348883241 12.0322729475474919   F   F   F
 22.2740267277083639 13.6895872837715622 14.0645458950949713   T   T   T
 20.1184757540591761  9.9560634791065912 14.0645458950949713   T   T   T
 20.1184757540591725 12.4450793488832421 14.0645458950949713   T   T   T
 17.9629247804099776  6.2225396744416193 14.0645458950949713   T   T   T
 17.9629247804099741  8.7115555442182639 14.0645458950949713   T   T   T
 17.9629247804099741 11.2005714139949166 14.0645458950949713   T   T   T
 17.9629247804099705 13.6895872837715640 14.0645458950949713   T   T   T
 15.8073738067607774  2.4890158697766482 14.0645458950949713   T   T   T
 15.8073738067607774  4.9780317395532965 14.0645458950949713   T   T   T
 15.8073738067607756  7.4670476093299420 14.0645458950949713   T   T   T
 15.8073738067607756  9.9560634791065894 14.0645458950949713   T   T   T
 15.8073738067607756 12.4450793488832403 14.0645458950949713   T   T   T
 13.6518228331115790  1.2445079348883241 14.0645458950949713   T   T   T
 13.6518228331115790  3.7335238046649692 14.0645458950949713   T   T   T
 13.6518228331115790  6.2225396744416175 14.0645458950949713   T   T   T
 13.6518228331115772  8.7115555442182657 14.0645458950949713   T   T   T
 13.6518228331115772 11.2005714139949131 14.0645458950949713   T   T   T
 13.6518228331115772 13.6895872837715586 14.0645458950949678   T   T   T
 11.4962718594623858  0.0000000000000017 14.0645458950949713   T   T   T
 11.4962718594623841  2.4890158697766478 14.0645458950949713   T   T   T
 11.4962718594623858  4.9780317395532956 14.0645458950949713   T   T   T
 11.4962718594623823  7.4670476093299420 14.0645458950949713   T   T   T
 11.4962718594623823  9.9560634791065912 14.0645458950949713   T   T   T
 11.4962718594623805 12.4450793488832350 14.0645458950949713   T   T   T
  9.3407208858131874  1.2445079348883241 14.0645458950949713   T   T   T
  9.3407208858131874  3.7335238046649710 14.0645458950949713   T   T   T
  9.3407208858131856  6.2225396744416175 14.0645458950949713   T   T   T
  9.3407208858131874  8.7115555442182675 14.0645458950949713   T   T   T
  9.3407208858131856 11.2005714139949131 14.0645458950949713   T   T   T
  9.3407208858131838 13.6895872837715604 14.0645458950949713   T   T   T
  7.1851699121639898  0.0000000000000017 14.0645458950949713   T   T   T
  7.1851699121639907  2.4890158697766478 14.0645458950949713   T   T   T
  7.1851699121639898  4.9780317395532956 14.0645458950949713   T   T   T
  7.1851699121639889  7.4670476093299420 14.0645458950949678   T   T   T
  7.1851699121639889  9.9560634791065930 14.0645458950949713   T   T   T
  7.1851699121639863 12.4450793488832350 14.0645458950949678   T   T   T
  5.0296189385147922  1.2445079348883259 14.0645458950949713   T   T   T
  5.0296189385147922  3.7335238046649728 14.0645458950949713   T   T   T
  5.0296189385147914  6.2225396744416193 14.0645458950949713   T   T   T
  5.0296189385147905  8.7115555442182657 14.0645458950949713   T   T   T
 22.2740267277083639 11.2005714139949166 14.0645458950949713   T   T   T
  2.8740679648655960  0.0000000000000017 14.0645458950949713   T   T   T
  2.8740679648655965  2.4890158697766487 14.0645458950949713   T   T   T
  2.8740679648655938  4.9780317395532947 14.0645458950949713   T   T   T
 20.1184757540591690  7.4670476093299412 14.0645458950949713   T   T   T
  0.7185169912163990  1.2445079348883250 14.0645458950949713   T   T   T
 17.9629247804099741  3.7335238046649710 14.0645458950949713   T   T   T
 15.8073738067607756  0.0000000000000017 14.0645458950949713   T   T   T
 23.7110607101411617 13.6895872837715586 16.0968188426424561   T   T   T
 21.5555097364919703  9.9560634791065912 16.0968188426424561   T   T   T
 21.5555097364919703 12.4450793488832350 16.0968188426424561   T   T   T
 19.3999587628427719  6.2225396744416175 16.0968188426424561   T   T   T
 19.3999587628427754  8.7115555442182675 16.0968188426424561   T   T   T
 19.3999587628427719 11.2005714139949148 16.0968188426424561   T   T   T
 19.3999587628427719 13.6895872837715622 16.0968188426424561   T   T   T
 17.2444077891935805  2.4890158697766482 16.0968188426424561   T   T   T
 17.2444077891935699  4.9780317395532956 16.0968188426424561   T   T   T
 17.2444077891935734  7.4670476093299385 16.0968188426424561   T   T   T
 17.2444077891935734  9.9560634791065912 16.0968188426424561   T   T   T
 17.2444077891935699 12.4450793488832385 16.0968188426424561   T   T   T
 15.0888568155443821  1.2445079348883226 16.0968188426424561   T   T   T
 15.0888568155443750  3.7335238046649710 16.0968188426424561   T   T   T
 15.0888568155443767  6.2225396744416175 16.0968188426424561   T   T   T
 15.0888568155443750  8.7115555442182639 16.0968188426424561   T   T   T
 15.0888568155443750 11.2005714139949095 16.0968188426424561   T   T   T
 15.0888568155443750 13.6895872837715569 16.0968188426424561   T   T   T
 12.9333058418951818 -0.0000000000000017 16.0968188426424561   T   T   T
 12.9333058418951801  2.4890158697766482 16.0968188426424561   T   T   T
 12.9333058418951801  4.9780317395532938 16.0968188426424561   T   T   T
 12.9333058418951783  7.4670476093299420 16.0968188426424561   T   T   T
 12.9333058418951801  9.9560634791065876 16.0968188426424561   T   T   T
 12.9333058418951801 12.4450793488832385 16.0968188426424561   T   T   T
 10.7777548682459852  1.2445079348883226 16.0968188426424561   T   T   T
 10.7777548682459869  3.7335238046649701 16.0968188426424561   T   T   T
 10.7777548682459852  6.2225396744416210 16.0968188426424561   T   T   T
 10.7777548682459816  8.7115555442182657 16.0968188426424561   T   T   T
 10.7777548682459852 11.2005714139949148 16.0968188426424561   T   T   T
 10.7777548682459816 13.6895872837715622 16.0968188426424561   T   T   T
  8.6222038945967885  0.0000000000000017 16.0968188426424561   T   T   T
  8.6222038945967849  2.4890158697766478 16.0968188426424561   T   T   T
  8.6222038945967867  4.9780317395532956 16.0968188426424561   T   T   T
  8.6222038945967867  7.4670476093299456 16.0968188426424561   T   T   T
  8.6222038945967849  9.9560634791065912 16.0968188426424561   T   T   T
  8.6222038945967832 12.4450793488832350 16.0968188426424561   T   T   T
  6.4666529209475900  1.2445079348883241 16.0968188426424561   T   T   T
  6.4666529209475891  3.7335238046649710 16.0968188426424561   T   T   T
  6.4666529209475891  6.2225396744416193 16.0968188426424561   T   T   T
  6.4666529209475883  8.7115555442182657 16.0968188426424561   T   T   T
  6.4666529209475883 11.2005714139949148 16.0968188426424561   T   T   T
  4.3111019472983942  0.0000000000000008 16.0968188426424561   T   T   T
  4.3111019472983934  2.4890158697766478 16.0968188426424561   T   T   T
  4.3111019472983925  4.9780317395532956 16.0968188426424561   T   T   T
  4.3111019472983925  7.4670476093299438 16.0968188426424561   T   T   T
  2.1555509736491967  1.2445079348883241 16.0968188426424561   T   T   T
  2.1555509736491962  3.7335238046649719 16.0968188426424561   T   T   T
  0.0000000000000000  0.0000000000000000 16.0968188426424561   T   T   T
 -1.9581117400012951 -5.6002857069974565 23.8651997783846355   T   T   T
  6.6640921545954912 -2.6134666632654788 23.8651997783846355   T   T   T
 15.2862960491922770  0.3733523804664985 23.8651997783846355   T   T   T
  6.6640921545954894  3.3601714241984761 23.8651997783846355   T   T   T
 15.2862960491922752  6.3469904679304516 23.8651997783846355   T   T   T
 15.2862960491922752 -2.6134666632654802 23.8651997783846355   T   T   T
  6.6640921545954894  0.3733523804664970 23.8651997783846355   T   T   T
 15.2862960491922752  3.3601714241984761 23.8651997783846355   T   T   T
  6.6640921545954894  6.3469904679304534 23.8651997783846355   T   T   T
  6.6640921545954903 -5.6002857069974565 23.8651997783846355   T   T   T
  0.4585207989814069 -4.1068761851314681 24.5612473953524102   T   T   T
  9.0807246935781922 -1.1200571413994915 24.5612473953524102   T   T   T
 17.7029285881749807  1.8667619023324860 24.5612473953524102   T   T   T
  9.0807246935781940  4.8535809460644668 24.5612473953524102   T   T   T
 17.7029285881749772  7.8403999897964392 24.5612473953524102   T   T   T
  0.4585207989814066 -1.1200571413994911 24.5612473953524102   T   T   T
  9.0807246935781940  1.8667619023324864 24.5612473953524102   T   T   T
 17.7029285881749772  4.8535809460644623 24.5612473953524102   T   T   T
  9.0807246935781905  7.8403999897964409 24.5612473953524102   T   T   T
  9.0807246935781940 -4.1068761851314681 24.5612473953524102   T   T   T
  2.8751533379641092 -2.6134666632654797 25.2572950123201778   T   T   T
 11.4973572325608977  0.3733523804664979 25.2572950123201778   T   T   T
  2.8751533379641088  3.3601714241984744 25.2572950123201778   T   T   T
 11.4973572325608959  6.3469904679304534 25.2572950123201778   T   T   T
 20.1195611271576809  9.3338095116624284 25.2572950123201778   T   T   T
  2.8751533379641097  0.3733523804664980 25.2572950123201778   T   T   T
 11.4973572325608977  3.3601714241984739 25.2572950123201778   T   T   T
 20.1195611271576809  6.3469904679304507 25.2572950123201778   T   T   T
 11.4973572325608959  9.3338095116624302 25.2572950123201778   T   T   T
 11.4973572325608941 -2.6134666632654784 25.2572950123201778   T   T   T
  5.2917858769468129 -1.1200571413994911 25.9533426292879525   T   T   T
 13.9139897715435978  1.8667619023324860 25.9533426292879525   T   T   T
  5.2917858769468111  4.8535809460644632 25.9533426292879525   T   T   T
 13.9139897715435978  7.8403999897964409 25.9533426292879525   T   T   T
 22.5361936661403846 10.8272190335284169 25.9533426292879525   T   T   T
  5.2917858769468120  1.8667619023324851 25.9533426292879525   T   T   T
 13.9139897715435978  4.8535809460644632 25.9533426292879525   T   T   T
  5.2917858769468102  7.8403999897964392 25.9533426292879525   T   T   T
 13.9139897715435978 10.8272190335284186 25.9533426292879525   T   T   T
 13.9139897715435996 -1.1200571413994902 25.9533426292879525   T   T   T
 -3.0024380013353191 -8.5871047507294325 21.0810093105135437   T   T   T
  5.6197658932614676 -5.6002857069974548 21.0810093105135508   T   T   T
 14.2419697878582525 -2.6134666632654775 21.0810093105135508   T   T   T
  5.6197658932614658  0.3733523804664999 21.0810093105135508   T   T   T
 14.2419697878582507  3.3601714241984757 21.0810093105135508   T   T   T
 14.2419697878582543 -5.6002857069974548 21.0810093105135508   T   T   T
  5.6197658932614658 -2.6134666632654784 21.0810093105135508   T   T   T
 14.2419697878582525  0.3733523804665005 21.0810093105135508   T   T   T
  5.6197658932614658  3.3601714241984766 21.0810093105135508   T   T   T
  5.6197658932614667 -8.5871047507294325 21.0810093105135437   T   T   T
 -0.5858054623526172 -7.0936952288634449 21.7770569274813184   T   T   T
  8.0363984322441695 -4.1068761851314672 21.7770569274813184   T   T   T
 16.6586023268409562 -1.1200571413994893 21.7770569274813255   T   T   T
  8.0363984322441677  1.8667619023324902 21.7770569274813184   T   T   T
 16.6586023268409562  4.8535809460644650 21.7770569274813255   T   T   T
 -0.5858054623526177 -4.1068761851314681 21.7770569274813184   T   T   T
  8.0363984322441695 -1.1200571413994902 21.7770569274813184   T   T   T
 16.6586023268409562  1.8667619023324860 21.7770569274813184   T   T   T
  8.0363984322441677  4.8535809460644659 21.7770569274813255   T   T   T
  8.0363984322441713 -7.0936952288634449 21.7770569274813184   T   T   T
  1.8308270766300851 -5.6002857069974565 22.4731045444490931   T   T   T
 10.4530309712268714 -2.6134666632654797 22.4731045444490931   T   T   T
  1.8308270766300845  0.3733523804664970 22.4731045444490931   T   T   T
 10.4530309712268696  3.3601714241984761 22.4731045444490931   T   T   T
 19.0752348658236563  6.3469904679304516 22.4731045444490931   T   T   T
  1.8308270766300849 -2.6134666632654797 22.4731045444490931   T   T   T
 10.4530309712268714  0.3733523804664974 22.4731045444490931   T   T   T
 19.0752348658236563  3.3601714241984735 22.4731045444490931   T   T   T
 10.4530309712268714  6.3469904679304534 22.4731045444490931   T   T   T
 10.4530309712268696 -5.6002857069974565 22.4731045444490931   T   T   T
  4.2474596156127884 -4.1068761851314681 23.1691521614168607   T   T   T
 12.8696635102095751 -1.1200571413994906 23.1691521614168607   T   T   T
  4.2474596156127884  1.8667619023324868 23.1691521614168607   T   T   T
 12.8696635102095716  4.8535809460644641 23.1691521614168678   T   T   T
 21.4918674048063636  7.8403999897964409 23.1691521614168678   T   T   T
  4.2474596156127884 -1.1200571413994911 23.1691521614168607   T   T   T
 12.8696635102095733  1.8667619023324871 23.1691521614168678   T   T   T
  4.2474596156127848  4.8535809460644614 23.1691521614168607   T   T   T
 12.8696635102095733  7.8403999897964427 23.1691521614168607   T   T   T
 12.8696635102095751 -4.1068761851314672 23.1691521614168607   T   T   T
 -4.0467642626693436 -11.5739237944614093 18.2968188426424589   T   T   T
  4.5754396319274431 -8.5871047507294307 18.2968188426424589   T   T   T
 13.1976435265242262 -5.6002857069974539 18.2968188426424589   T   T   T
  4.5754396319274413 -2.6134666632654766 18.2968188426424589   T   T   T
 13.1976435265242280  0.3733523804664994 18.2968188426424589   T   T   T
 13.1976435265242280 -8.5871047507294307 18.2968188426424589   T   T   T
  4.5754396319274431 -5.6002857069974548 18.2968188426424589   T   T   T
 13.1976435265242280 -2.6134666632654753 18.2968188426424661   T   T   T
  4.5754396319274413  0.3733523804664999 18.2968188426424589   T   T   T
  4.5754396319274431 -11.5739237944614093 18.2968188426424589   T   T   T
 -1.6301317236866408 -10.0805142725954227 18.9928664596102266   T   T   T
  6.9920721709101441 -7.0936952288634458 18.9928664596102337   T   T   T
 15.6142760655069317 -4.1068761851314681 18.9928664596102337   T   T   T
  6.9920721709101441 -1.1200571413994878 18.9928664596102337   T   T   T
 15.6142760655069299  1.8667619023324868 18.9928664596102337   T   T   T
 -1.6301317236866422 -7.0936952288634458 18.9928664596102266   T   T   T
  6.9920721709101441 -4.1068761851314681 18.9928664596102337   T   T   T
 15.6142760655069281 -1.1200571413994913 18.9928664596102337   T   T   T
  6.9920721709101432  1.8667619023324884 18.9928664596102337   T   T   T
  6.9920721709101450 -10.0805142725954227 18.9928664596102266   T   T   T
  0.7865008152960611 -8.5871047507294325 19.6889140765780084   T   T   T
  9.4087047098928487 -5.6002857069974556 19.6889140765780013   T   T   T
  0.7865008152960604 -2.6134666632654797 19.6889140765780084   T   T   T
  9.4087047098928487  0.3733523804664999 19.6889140765780084   T   T   T
 18.0309086044896354  3.3601714241984757 19.6889140765780084   T   T   T
  0.7865008152960611 -5.6002857069974556 19.6889140765780084   T   T   T
  9.4087047098928487 -2.6134666632654788 19.6889140765780084   T   T   T
 18.0309086044896354  0.3733523804664973 19.6889140765780084   T   T   T
  9.4087047098928469  3.3601714241984766 19.6889140765780084   T   T   T
  9.4087047098928451 -8.5871047507294325 19.6889140765780013   T   T   T
  3.2031333542787648 -7.0936952288634449 20.3849616935457760   T   T   T
 11.8253372488755506 -4.1068761851314672 20.3849616935457760   T   T   T
  3.2031333542787643 -1.1200571413994893 20.3849616935457760   T   T   T
 11.8253372488755488  1.8667619023324880 20.3849616935457760   T   T   T
 20.4475411434723426  4.8535809460644650 20.3849616935457760   T   T   T
  3.2031333542787639 -4.1068761851314672 20.3849616935457760   T   T   T
 11.8253372488755506 -1.1200571413994889 20.3849616935457760   T   T   T
  3.2031333542787621  1.8667619023324871 20.3849616935457760   T   T   T
 11.8253372488755488  4.8535809460644668 20.3849616935457760   T   T   T
 11.8253372488755524 -7.0936952288634432 20.3849616935457760   T   T   T
 -1.4359486093342833 -4.1068761851314681 25.2572950123201778   T   T   T
  7.1862552852625026 -1.1200571413994906 25.2572950123201778   T   T   T
 15.8084591798592875  1.8667619023324868 25.2572950123201778   T   T   T
  7.1862552852625008  4.8535809460644641 25.2572950123201778   T   T   T
 15.8084591798592857  7.8403999897964392 25.2572950123201778   T   T   T
  0.9806839296484188  0.3733523804664970 25.9533426292879525   T   T   T
  9.6028878242452045  3.3601714241984744 25.9533426292879525   T   T   T
 18.2250917188419912  6.3469904679304516 25.9533426292879525   T   T   T
  9.6028878242452045  9.3338095116624302 25.9533426292879525   T   T   T
  9.6028878242452063 -2.6134666632654793 25.9533426292879525   T   T   T
  2.3529902072970970 -1.1200571413994900 23.8651997783846355   T   T   T
 10.9751941018938837  1.8667619023324860 23.8651997783846355   T   T   T
 19.5973979964906668  4.8535809460644632 23.8651997783846355   T   T   T
 10.9751941018938819  7.8403999897964409 23.8651997783846355   T   T   T
 10.9751941018938837 -4.1068761851314672 23.8651997783846355   T   T   T
  4.7696227462798007 -2.6134666632654793 24.5612473953524102   T   T   T
 13.3918266408765874  0.3733523804664979 24.5612473953524102   T   T   T
  4.7696227462798007  3.3601714241984748 24.5612473953524102   T   T   T
 13.3918266408765838  6.3469904679304534 24.5612473953524102   T   T   T
 22.0140305354733741  9.3338095116624284 24.5612473953524102   T   T   T
 -2.4802748706683078 -7.0936952288634458 22.4731045444490931   T   T   T
  6.1419290239284772 -4.1068761851314681 22.4731045444490931   T   T   T
 14.7641329185252648 -1.1200571413994906 22.4731045444490931   T   T   T
  6.1419290239284772  1.8667619023324868 22.4731045444490931   T   T   T
 14.7641329185252630  4.8535809460644623 22.4731045444490931   T   T   T
 -0.0636423316856054 -2.6134666632654802 23.1691521614168607   T   T   T
  8.5585615629111800  0.3733523804664978 23.1691521614168678   T   T   T
 17.1807654575079631  3.3601714241984744 23.1691521614168607   T   T   T
  8.5585615629111800  6.3469904679304543 23.1691521614168678   T   T   T
  8.5585615629111800 -5.6002857069974565 23.1691521614168607   T   T   T
  1.3086639459630733 -4.1068761851314664 21.0810093105135437   T   T   T
  9.9308678405598592 -1.1200571413994893 21.0810093105135508   T   T   T
 18.5530717351566459  1.8667619023324868 21.0810093105135508   T   T   T
  9.9308678405598592  4.8535809460644659 21.0810093105135437   T   T   T
  9.9308678405598592 -7.0936952288634432 21.0810093105135437   T   T   T
  3.7252964849457757 -5.6002857069974565 21.7770569274813184   T   T   T
 12.3475003795425629 -2.6134666632654788 21.7770569274813184   T   T   T
  3.7252964849457761  0.3733523804664986 21.7770569274813184   T   T   T
 12.3475003795425611  3.3601714241984761 21.7770569274813184   T   T   T
 20.9697042741393496  6.3469904679304534 21.7770569274813184   T   T   T
 -3.5246011320023314 -10.0805142725954227 19.6889140765780013   T   T   T
  5.0976027625944553 -7.0936952288634449 19.6889140765780084   T   T   T
 13.7198066571912385 -4.1068761851314672 19.6889140765780084   T   T   T
  5.0976027625944527 -1.1200571413994893 19.6889140765780084   T   T   T
 13.7198066571912385  1.8667619023324864 19.6889140765780084   T   T   T
 -1.1079685930196295 -5.6002857069974565 20.3849616935457760   T   T   T
  7.5142353015771564 -2.6134666632654784 20.3849616935457760   T   T   T
 16.1364391961739422  0.3733523804664979 20.3849616935457760   T   T   T
  7.5142353015771564  3.3601714241984779 20.3849616935457831   T   T   T
  7.5142353015771564 -8.5871047507294325 20.3849616935457760   T   T   T
  0.2643376846290506 -7.0936952288634423 18.2968188426424589   T   T   T
  8.8865415792258347 -4.1068761851314681 18.2968188426424589   T   T   T
 17.5087454738226214 -1.1200571413994893 18.2968188426424661   T   T   T
  8.8865415792258364  1.8667619023324897 18.2968188426424589   T   T   T
  8.8865415792258347 -10.0805142725954191 18.2968188426424589   T   T   T
  2.6809702236117516 -8.5871047507294342 18.9928664596102266   T   T   T
 11.3031741182085383 -5.6002857069974565 18.9928664596102266   T   T   T
  2.6809702236117521 -2.6134666632654793 18.9928664596102266   T   T   T
 11.3031741182085348  0.3733523804664986 18.9928664596102337   T   T   T
 19.9253780128053286  3.3601714241984761 18.9928664596102337   T   T   T
  9.4154104257541444  2.1922877580020392 27.7533426292879568   T   T   T
  9.4154104257541444  4.5922877580020396 27.7533426292879568   T   T   T
 11.8154104257541430  2.1922877580020392 27.7533426292879568   T   T   T
 11.8154104257541430  4.5922877580020396 27.7533426292879568   T   T   T
