Ni Mo Pd Mo N 
 1.0000000000000000
     8.9742743439233017    0.0000000000000000    0.0000000000000005
     2.0709863870592224   37.2777549670660235    0.0000000000000023
     0.0000000000000000    0.0000000000000000   33.8634000000000057
 Ni  Mo  Pd  Mo  N  
 216  54   1 105  80
Selective dynamics
Cartesian
  5.5226303654912616  0.6903287956864071 13.5199999999999996   T   T   T
  7.5936167525504867  2.0709863870592229 13.5199999999999996   T   T   T
  0.0000000000000000  0.0000000000000000 13.5199999999999996   T   T   T
  2.0709863870592242  1.3806575913728156 13.5199999999999996   T   T   T
  4.1419727741184484  2.7613151827456313 13.5199999999999996   T   T   T
  6.2129591611776718  4.1419727741184484 13.5199999999999996   T   T   T
  8.2839455482368969  5.5226303654912625 13.5199999999999996   T   T   T
  0.6903287956864079  3.4516439784320392 13.5199999999999996   T   T   T
  2.7613151827456317  4.8323015698048568 13.5199999999999996   T   T   T
  4.8323015698048550  6.2129591611776700 13.5199999999999996   T   T   T
  6.9032879568640793  7.5936167525504841 13.5199999999999996   T   T   T
  8.9742743439233035  8.9742743439233017 13.5200000000000031   T   T   T
  1.3806575913728159  6.9032879568640784 13.5199999999999996   T   T   T
  3.4516439784320401  8.2839455482368898 13.5199999999999996   T   T   T
  5.5226303654912634  9.6646031396097136 13.5200000000000031   T   T   T
  7.5936167525504867 11.0452607309825250 13.5200000000000031   T   T   T
  2.0709863870592233 10.3549319352961184 13.5199999999999996   T   T   T
  4.1419727741184476 11.7355895266689334 13.5200000000000031   T   T   T
  6.2129591611776691 13.1162471180417501 13.5200000000000031   T   T   T
  8.2839455482368916 14.4969047094145616 13.5200000000000031   T   T   T
  0.6903287956864076 12.4259183223553418 13.5199999999999996   T   T   T
  2.7613151827456317 13.8065759137281567 13.5200000000000031   T   T   T
  4.8323015698048559 15.1872335051009735 13.5200000000000031   T   T   T
  6.9032879568640801 16.5678910964737796 13.5200000000000031   T   T   T
  8.9742743439233017 17.9485486878465998 13.5200000000000031   T   T   T
  1.3806575913728154 15.8775623007873765 13.5200000000000031   T   T   T
  3.4516439784320401 17.2582198921601950 13.5200000000000031   T   T   T
  5.5226303654912616 18.6388774835330047 13.5200000000000031   T   T   T
  7.5936167525504858 20.0195350749058250 13.5200000000000031   T   T   T
  9.6646031396097118 21.4001926662786346 13.5200000000000031   T   T   T
  2.0709863870592229 19.3292062792194237 13.5200000000000031   T   T   T
  4.1419727741184467 20.7098638705922369 13.5200000000000031   T   T   T
  6.2129591611776709 22.0905214619650430 13.5200000000000031   T   T   T
  8.2839455482368951 23.4711790533378668 13.5200000000000031   T   T   T
  2.7613151827456326 22.7808502576514620 13.5200000000000031   T   T   T
  4.8323015698048550 24.1615078490242752 13.5200000000000031   T   T   T
  6.9032879568640775 25.5421654403970848 13.5200000000000031   T   T   T
  8.9742743439233053 26.9228230317699087 13.5200000000000031   T   T   T
  1.3806575913728152 24.8518366447106835 13.5200000000000031   T   T   T
  3.4516439784320392 26.2324942360835003 13.5200000000000031   T   T   T
  5.5226303654912634 27.6131518274563135 13.5200000000000031   T   T   T
  7.5936167525504858 28.9938094188291231 13.5200000000000031   T   T   T
  9.6646031396097118 30.3744670102019469 13.5200000000000031   T   T   T
  2.0709863870592224 28.3034806231427218 13.5200000000000031   T   T   T
  4.1419727741184449 29.6841382145155350 13.5200000000000031   T   T   T
  6.2129591611776691 31.0647958058883411 13.5200000000000031   T   T   T
  8.2839455482368933 32.4454533972611614 13.5200000000000031   T   T   T
 10.3549319352961167 33.8261109886339781 13.5200000000000031   T   T   T
  2.7613151827456308 31.7551246015747530 13.5200000000000031   T   T   T
  4.8323015698048550 33.1357821929475733 13.5200000000000031   T   T   T
  6.9032879568640801 34.5164397843203901 13.5200000000000031   T   T   T
  8.9742743439233017 35.8970973756932068 13.5200000000000031   T   T   T
  3.4516439784320410 35.2067685800068020 13.5200000000000031   T   T   T
  5.5226303654912616 36.5874261713796187 13.5200000000000031   T   T   T
  5.8677947633344667  2.4161507849024262 15.2800000000000011   T   T   T
  7.9387811503936909  3.7968083762752425 15.2800000000000011   T   T   T
  0.3451643978432040  1.7258219892160196 15.2800000000000011   T   T   T
  2.4161507849024284  3.1064795805888350 15.2800000000000011   T   T   T
  4.4871371719616526  4.4871371719616508 15.2800000000000011   T   T   T
  6.5581235590208760  5.8677947633344649 15.2800000000000011   T   T   T
  8.6291099460800993  7.2484523547072826 15.2800000000000047   T   T   T
  1.0354931935296119  5.1774659676480592 15.2800000000000011   T   T   T
  3.1064795805888350  6.5581235590208751 15.2800000000000011   T   T   T
  5.1774659676480592  7.9387811503936900 15.2800000000000011   T   T   T
  7.2484523547072817  9.3194387417665041 15.2800000000000047   T   T   T
  9.3194387417665077 10.7000963331393208 15.2800000000000047   T   T   T
  1.7258219892160200  8.6291099460800975 15.2800000000000011   T   T   T
  3.7968083762752429 10.0097675374529125 15.2800000000000011   T   T   T
  5.8677947633344676 11.3904251288257310 15.2800000000000047   T   T   T
  7.9387811503936900 12.7710827201985424 15.2800000000000047   T   T   T
  2.4161507849024275 12.0807539245121376 15.2800000000000011   T   T   T
  4.4871371719616508 13.4614115158849543 15.2800000000000047   T   T   T
  6.5581235590208742 14.8420691072577675 15.2800000000000047   T   T   T
  8.6291099460800975 16.2227266986305807 15.2800000000000047   T   T   T
  1.0354931935296114 14.1517403115713609 15.2800000000000011   T   T   T
  3.1064795805888354 15.5323979029441723 15.2800000000000047   T   T   T
  5.1774659676480592 16.9130554943169891 15.2800000000000047   T   T   T
  7.2484523547072834 18.2937130856898058 15.2800000000000047   T   T   T
  9.3194387417665059 19.6743706770626297 15.2800000000000047   T   T   T
  1.7258219892160205 17.6033842900034010 15.2800000000000047   T   T   T
  3.7968083762752434 18.9840418813762142 15.2800000000000047   T   T   T
  5.8677947633344676 20.3646994727490309 15.2800000000000047   T   T   T
  7.9387811503936909 21.7453570641218441 15.2800000000000047   T   T   T
 10.0097675374529160 23.1260146554946608 15.2800000000000047   T   T   T
  2.4161507849024266 21.0550282684354464 15.2800000000000047   T   T   T
  4.4871371719616508 22.4356858598082525 15.2800000000000047   T   T   T
  6.5581235590208742 23.8163434511810692 15.2800000000000047   T   T   T
  8.6291099460800975 25.1970010425538860 15.2800000000000047   T   T   T
  3.1064795805888368 24.5066722468674847 15.2800000000000047   T   T   T
  5.1774659676480601 25.8873298382402943 15.2800000000000047   T   T   T
  7.2484523547072843 27.2679874296131075 15.2800000000000047   T   T   T
  9.3194387417665077 28.6486450209859242 15.2800000000000047   T   T   T
  1.7258219892160187 26.5776586339266991 15.2800000000000047   T   T   T
  3.7968083762752443 27.9583162252995265 15.2800000000000047   T   T   T
  5.8677947633344676 29.3389738166723326 15.2800000000000047   T   T   T
  7.9387811503936918 30.7196314080451458 15.2800000000000047   T   T   T
 10.0097675374529160 32.1002889994179696 15.2800000000000047   T   T   T
  2.4161507849024262 30.0293026123587374 15.2800000000000047   T   T   T
  4.4871371719616491 31.4099602037315542 15.2800000000000047   T   T   T
  6.5581235590208742 32.7906177951043674 15.2800000000000047   T   T   T
  8.6291099460800975 34.1712753864771770 15.2800000000000047   T   T   T
 10.7000963331393208 35.5519329778500079 15.2800000000000047   T   T   T
  3.1064795805888350 33.4809465907907793 15.2800000000000047   T   T   T
  5.1774659676480601 34.8616041821635889 15.2800000000000047   T   T   T
  7.2484523547072808 36.2422617735364128 15.2800000000000047   T   T   T
  7.2484523547072834  0.3451643978431972 15.2800000000000011   T   T   T
  3.7968083762752411 36.9325905692228105 15.2800000000000047   T   T   T
  3.7968083762752434  1.0354931935296079 15.2800000000000011   T   T   T
  5.5226303654912616  0.6903287956864071 10.0000000000000036   F   F   F
  7.5936167525504867  2.0709863870592229 10.0000000000000036   F   F   F
  0.0000000000000000  0.0000000000000000 10.0000000000000036   F   F   F
  2.0709863870592242  1.3806575913728156 10.0000000000000036   F   F   F
  4.1419727741184484  2.7613151827456313 10.0000000000000036   F   F   F
  6.2129591611776718  4.1419727741184484 10.0000000000000036   F   F   F
  8.2839455482368969  5.5226303654912625 10.0000000000000036   F   F   F
  0.6903287956864079  3.4516439784320392 10.0000000000000036   F   F   F
  2.7613151827456317  4.8323015698048568 10.0000000000000036   F   F   F
  4.8323015698048550  6.2129591611776700 10.0000000000000036   F   F   F
  6.9032879568640793  7.5936167525504841 10.0000000000000036   F   F   F
  8.9742743439233035  8.9742743439233017 10.0000000000000036   F   F   F
  1.3806575913728159  6.9032879568640784 10.0000000000000036   F   F   F
  3.4516439784320401  8.2839455482368898 10.0000000000000036   F   F   F
  5.5226303654912634  9.6646031396097136 10.0000000000000036   F   F   F
  7.5936167525504867 11.0452607309825250 10.0000000000000036   F   F   F
  2.0709863870592233 10.3549319352961184 10.0000000000000036   F   F   F
  4.1419727741184476 11.7355895266689334 10.0000000000000036   F   F   F
  6.2129591611776691 13.1162471180417501 10.0000000000000036   F   F   F
  8.2839455482368916 14.4969047094145616 10.0000000000000036   F   F   F
  0.6903287956864076 12.4259183223553418 10.0000000000000036   F   F   F
  2.7613151827456317 13.8065759137281567 10.0000000000000036   F   F   F
  4.8323015698048559 15.1872335051009735 10.0000000000000036   F   F   F
  6.9032879568640801 16.5678910964737796 10.0000000000000036   F   F   F
  8.9742743439233017 17.9485486878465998 10.0000000000000036   F   F   F
  1.3806575913728154 15.8775623007873765 10.0000000000000036   F   F   F
  3.4516439784320401 17.2582198921601950 10.0000000000000036   F   F   F
  5.5226303654912616 18.6388774835330047 10.0000000000000036   F   F   F
  7.5936167525504858 20.0195350749058250 10.0000000000000036   F   F   F
  9.6646031396097118 21.4001926662786346 10.0000000000000036   F   F   F
  2.0709863870592229 19.3292062792194237 10.0000000000000036   F   F   F
  4.1419727741184467 20.7098638705922369 10.0000000000000036   F   F   F
  6.2129591611776709 22.0905214619650430 10.0000000000000036   F   F   F
  8.2839455482368951 23.4711790533378668 10.0000000000000036   F   F   F
  2.7613151827456326 22.7808502576514620 10.0000000000000036   F   F   F
  4.8323015698048550 24.1615078490242752 10.0000000000000036   F   F   F
  6.9032879568640775 25.5421654403970848 10.0000000000000036   F   F   F
  8.9742743439233053 26.9228230317699087 10.0000000000000036   F   F   F
  1.3806575913728152 24.8518366447106835 10.0000000000000036   F   F   F
  3.4516439784320392 26.2324942360835003 10.0000000000000036   F   F   F
  5.5226303654912634 27.6131518274563135 10.0000000000000036   F   F   F
  7.5936167525504858 28.9938094188291231 10.0000000000000036   F   F   F
  9.6646031396097118 30.3744670102019469 10.0000000000000036   F   F   F
  2.0709863870592224 28.3034806231427218 10.0000000000000036   F   F   F
  4.1419727741184449 29.6841382145155350 10.0000000000000036   F   F   F
  6.2129591611776691 31.0647958058883411 10.0000000000000036   F   F   F
  8.2839455482368933 32.4454533972611614 10.0000000000000036   F   F   F
 10.3549319352961167 33.8261109886339781 10.0000000000000036   F   F   F
  2.7613151827456308 31.7551246015747530 10.0000000000000036   F   F   F
  4.8323015698048550 33.1357821929475733 10.0000000000000036   F   F   F
  6.9032879568640801 34.5164397843203901 10.0000000000000036   F   F   F
  8.9742743439233017 35.8970973756932068 10.0000000000000036   F   F   F
  3.4516439784320410 35.2067685800068020 10.0000000000000036   F   F   F
  5.5226303654912616 36.5874261713796187 10.0000000000000036   F   F   F
  5.8677947633344667  2.4161507849024262 11.7600000000000051   F   F   F
  7.9387811503936909  3.7968083762752425 11.7600000000000051   F   F   F
  0.3451643978432040  1.7258219892160196 11.7600000000000051   F   F   F
  2.4161507849024284  3.1064795805888350 11.7600000000000051   F   F   F
  4.4871371719616526  4.4871371719616508 11.7600000000000051   F   F   F
  6.5581235590208760  5.8677947633344649 11.7600000000000051   F   F   F
  8.6291099460800993  7.2484523547072826 11.7600000000000051   F   F   F
  1.0354931935296119  5.1774659676480592 11.7600000000000051   F   F   F
  3.1064795805888350  6.5581235590208751 11.7600000000000051   F   F   F
  5.1774659676480592  7.9387811503936900 11.7600000000000051   F   F   F
  7.2484523547072817  9.3194387417665041 11.7600000000000051   F   F   F
  9.3194387417665077 10.7000963331393208 11.7600000000000051   F   F   F
  1.7258219892160200  8.6291099460800975 11.7600000000000051   F   F   F
  3.7968083762752429 10.0097675374529125 11.7600000000000051   F   F   F
  5.8677947633344676 11.3904251288257310 11.7600000000000051   F   F   F
  7.9387811503936900 12.7710827201985424 11.7600000000000051   F   F   F
  2.4161507849024275 12.0807539245121376 11.7600000000000051   F   F   F
  4.4871371719616508 13.4614115158849543 11.7600000000000051   F   F   F
  6.5581235590208742 14.8420691072577675 11.7600000000000051   F   F   F
  8.6291099460800975 16.2227266986305807 11.7600000000000051   F   F   F
  1.0354931935296114 14.1517403115713609 11.7600000000000051   F   F   F
  3.1064795805888354 15.5323979029441723 11.7600000000000051   F   F   F
  5.1774659676480592 16.9130554943169891 11.7600000000000051   F   F   F
  7.2484523547072834 18.2937130856898058 11.7600000000000051   F   F   F
  9.3194387417665059 19.6743706770626297 11.7600000000000051   F   F   F
  1.7258219892160205 17.6033842900034010 11.7600000000000051   F   F   F
  3.7968083762752434 18.9840418813762142 11.7600000000000051   F   F   F
  5.8677947633344676 20.3646994727490309 11.7600000000000051   F   F   F
  7.9387811503936909 21.7453570641218441 11.7600000000000051   F   F   F
 10.0097675374529160 23.1260146554946608 11.7600000000000051   F   F   F
  2.4161507849024266 21.0550282684354464 11.7600000000000051   F   F   F
  4.4871371719616508 22.4356858598082525 11.7600000000000051   F   F   F
  6.5581235590208742 23.8163434511810692 11.7600000000000051   F   F   F
  8.6291099460800975 25.1970010425538860 11.7600000000000051   F   F   F
  3.1064795805888368 24.5066722468674847 11.7600000000000051   F   F   F
  5.1774659676480601 25.8873298382402943 11.7600000000000051   F   F   F
  7.2484523547072843 27.2679874296131075 11.7600000000000051   F   F   F
  9.3194387417665077 28.6486450209859242 11.7600000000000051   F   F   F
  1.7258219892160187 26.5776586339266991 11.7600000000000051   F   F   F
  3.7968083762752443 27.9583162252995265 11.7600000000000051   F   F   F
  5.8677947633344676 29.3389738166723326 11.7600000000000051   F   F   F
  7.9387811503936918 30.7196314080451458 11.7600000000000051   F   F   F
 10.0097675374529160 32.1002889994179696 11.7600000000000051   F   F   F
  2.4161507849024262 30.0293026123587374 11.7600000000000051   F   F   F
  4.4871371719616491 31.4099602037315542 11.7600000000000051   F   F   F
  6.5581235590208742 32.7906177951043674 11.7600000000000051   F   F   F
  8.6291099460800975 34.1712753864771770 11.7600000000000051   F   F   F
 10.7000963331393208 35.5519329778500079 11.7600000000000087   F   F   F
  3.1064795805888350 33.4809465907907793 11.7600000000000051   F   F   F
  5.1774659676480601 34.8616041821635889 11.7600000000000051   F   F   F
  7.2484523547072808 36.2422617735364128 11.7600000000000051   F   F   F
  7.2484523547072834  0.3451643978431972 11.7600000000000051   F   F   F
  3.7968083762752411 36.9325905692228105 11.7600000000000051   F   F   F
  3.7968083762752434  1.0354931935296079 11.7600000000000051   F   F   F
  0.0000000000000000  0.0000000000000000 21.7356000000000016   T   T   T
  2.0019535074905828  3.7277754967066024 21.7356000000000016   T   T   T
  4.0039070149811655  7.4555509934132047 21.7356000000000016   T   T   T
  6.0058605224717496 11.1833264901198106 21.7356000000000016   T   T   T
  1.0354931935296112 18.6388774835330118 21.7356000000000016   T   T   T
  8.0078140299623310 14.9111019868264094 21.7356000000000016   T   T   T
  3.0374467010201913 22.3666529802396141 21.7356000000000016   T   T   T
  5.0394002085107772 26.0944284769462200 21.7356000000000051   T   T   T
  7.0413537160013586 29.8222039736528188 21.7356000000000051   T   T   T
  9.0433072234919436 33.5499794703594247 21.7356000000000051   T   T   T
  1.0009767537452914  1.8638877483533012 23.8634000000000022   T   T   T
  3.0029302612358735  5.5916632450599035 23.8634000000000022   T   T   T
  5.0048837687264562  9.3194387417665059 23.8634000000000022   T   T   T
  7.0068372762170412 13.0472142384731118 23.8634000000000022   T   T   T
  2.0364699472749046 20.5027652318863183 23.8634000000000022   T   T   T
  9.0087907837076209 16.7749897351797124 23.8634000000000022   T   T   T
  4.0384234547654838 24.2305407285929135 23.8634000000000022   T   T   T
  6.0403769622560688 27.9583162252995230 23.8634000000000057   T   T   T
  8.0423304697466556 31.6860917220061289 23.8634000000000057   T   T   T
 10.0442839772372370 35.4138672187127312 23.8634000000000057   T   T   T
  3.8140665961674038 36.3458110928893774 23.8634000000000057   T   T   T
  3.7450337165987628  2.7958316225299522 23.8634000000000022   T   T   T
  5.7469872240893451  6.5236071192365559 23.8634000000000022   T   T   T
  7.7489407315799301 10.2513826159431591 23.8634000000000022   T   T   T
  2.7785734026377917 17.7069336093563656 23.8634000000000022   T   T   T
  0.7766198951472074 13.9791581126497597 23.8634000000000022   T   T   T
  4.7805269101283718 21.4347091060629609 23.8634000000000022   T   T   T
  6.7824804176189568 25.1624846027695668 23.8634000000000057   T   T   T
  8.7844339251095391 28.8902600994761727 23.8634000000000057   T   T   T
  1.8121130886768197 32.6180355961827715 23.8634000000000057   T   T   T
  2.7440569628534712  0.9319438741766508 21.7356000000000016   T   T   T
  4.7460104703440535  4.6597193708832529 21.7356000000000016   T   T   T
  6.7479639778346368  8.3874948675898544 21.7356000000000016   T   T   T
  8.7499174853252200 12.1152703642964603 21.7356000000000016   T   T   T
  3.7795501563830816 19.5708213577096615 21.7356000000000016   T   T   T
  1.7775966488925004 15.8430458610030573 21.7356000000000016   T   T   T
  5.7815036638736643 23.2985968544162674 21.7356000000000016   T   T   T
  7.7834571713642493 27.0263723511228697 21.7356000000000051   T   T   T
  9.7854106788548325 30.7541478478294792 21.7356000000000051   T   T   T
  2.8130898424221140 34.4819233445360709 21.7356000000000051   T   T   T
  5.5571468052755826 35.4138672187127241 21.7356000000000051   T   T   T
  5.4881139257069425  1.8638877483533016 21.7356000000000016   T   T   T
  7.4900674331975257  5.5916632450599044 21.7356000000000016   T   T   T
  0.5177465967648078  9.3194387417665094 21.7356000000000016   T   T   T
  4.5216536117459718 16.7749897351797124 21.7356000000000016   T   T   T
  2.5197001042553908 13.0472142384731118 21.7356000000000016   T   T   T
  6.5236071192365515 20.5027652318863112 21.7356000000000016   T   T   T
  8.5255606267271382 24.2305407285929242 21.7356000000000051   T   T   T
  1.5532397902944193 27.9583162252995265 21.7356000000000016   T   T   T
  3.5551932977850034 31.6860917220061289 21.7356000000000051   T   T   T
  4.4871371719616508  0.0000000000000000 23.8634000000000022   T   T   T
  6.4890906794522332  3.7277754967066024 23.8634000000000022   T   T   T
  8.4910441869428155  7.4555509934132047 23.8634000000000022   T   T   T
  1.5187233505100983 11.1833264901198106 23.8634000000000022   T   T   T
  5.5226303654912616 18.6388774835330118 23.8634000000000022   T   T   T
  3.5206768580006793 14.9111019868264094 23.8634000000000022   T   T   T
  7.5245838729818431 22.3666529802396141 23.8634000000000022   T   T   T
  9.5265373804724298 26.0944284769462236 23.8634000000000057   T   T   T
  2.5542165440397095 29.8222039736528259 23.8634000000000057   T   T   T
  4.5561700515302936 33.5499794703594318 23.8634000000000057   T   T   T
  7.3002270143837622 34.4819233445360709 23.8634000000000057   T   T   T
  7.2311941348151221  0.9319438741766504 23.8634000000000022   T   T   T
  0.2588732983824028  4.6597193708832529 23.8634000000000022   T   T   T
  2.2608268058729872  8.3874948675898580 23.8634000000000022   T   T   T
  6.2647338208541532 15.8430458610030644 23.8634000000000022   T   T   T
  4.2627803133635709 12.1152703642964603 23.8634000000000022   T   T   T
  8.2666873283447337 19.5708213577096579 23.8634000000000022   T   T   T
  1.2943664919120164 23.2985968544162674 23.8634000000000022   T   T   T
  3.2963199994026007 27.0263723511228733 23.8634000000000022   T   T   T
  5.2982735068931781 30.7541478478294721 23.8634000000000057   T   T   T
  8.3012037681290565 36.3458110928893774 21.7356000000000051   T   T   T
  8.2321708885604146  2.7958316225299513 21.7356000000000016   T   T   T
  1.2598500521276947  6.5236071192365541 21.7356000000000016   T   T   T
  3.2618035596182797 10.2513826159431591 21.7356000000000016   T   T   T
  7.2657105745994448 17.7069336093563656 21.7356000000000016   T   T   T
  5.2637570671088580 13.9791581126497597 21.7356000000000016   T   T   T
  9.2676640820900236 21.4347091060629609 21.7356000000000051   T   T   T
  2.2953432456573086 25.1624846027695703 21.7356000000000016   T   T   T
  4.2972967531478883 28.8902600994761727 21.7356000000000051   T   T   T
  6.2992502606384724 32.6180355961827715 21.7356000000000051   T   T   T
  0.0000000000000000  0.0000000000000000 17.4800000000000004   T   T   T
  2.0019535074905828  3.7277754967066024 17.4800000000000004   T   T   T
  4.0039070149811655  7.4555509934132047 17.4800000000000004   T   T   T
  6.0058605224717496 11.1833264901198106 17.4800000000000004   T   T   T
  1.0354931935296112 18.6388774835330118 17.4800000000000004   T   T   T
  8.0078140299623310 14.9111019868264094 17.4800000000000004   T   T   T
  3.0374467010201913 22.3666529802396141 17.4800000000000004   T   T   T
  5.0394002085107772 26.0944284769462200 17.4800000000000040   T   T   T
  7.0413537160013586 29.8222039736528188 17.4800000000000040   T   T   T
  9.0433072234919436 33.5499794703594247 17.4800000000000040   T   T   T
  1.0009767537452914  1.8638877483533012 19.6078000000000010   T   T   T
  3.0029302612358735  5.5916632450599035 19.6078000000000010   T   T   T
  5.0048837687264562  9.3194387417665059 19.6078000000000010   T   T   T
  7.0068372762170412 13.0472142384731118 19.6078000000000010   T   T   T
  2.0364699472749046 20.5027652318863183 19.6078000000000010   T   T   T
  9.0087907837076209 16.7749897351797124 19.6078000000000010   T   T   T
  4.0384234547654838 24.2305407285929135 19.6078000000000010   T   T   T
  6.0403769622560688 27.9583162252995230 19.6078000000000046   T   T   T
  8.0423304697466556 31.6860917220061289 19.6078000000000046   T   T   T
 10.0442839772372370 35.4138672187127312 19.6078000000000046   T   T   T
  3.8140665961674038 36.3458110928893774 19.6078000000000046   T   T   T
  3.7450337165987628  2.7958316225299522 19.6078000000000010   T   T   T
  5.7469872240893451  6.5236071192365559 19.6078000000000010   T   T   T
  7.7489407315799301 10.2513826159431591 19.6078000000000010   T   T   T
  2.7785734026377917 17.7069336093563656 19.6078000000000010   T   T   T
  0.7766198951472074 13.9791581126497597 19.6078000000000010   T   T   T
  4.7805269101283718 21.4347091060629609 19.6078000000000010   T   T   T
  6.7824804176189568 25.1624846027695668 19.6078000000000046   T   T   T
  8.7844339251095391 28.8902600994761727 19.6078000000000046   T   T   T
  1.8121130886768197 32.6180355961827715 19.6078000000000046   T   T   T
  2.7440569628534712  0.9319438741766508 17.4800000000000004   T   T   T
  4.7460104703440535  4.6597193708832529 17.4800000000000004   T   T   T
  6.7479639778346368  8.3874948675898544 17.4800000000000004   T   T   T
  8.7499174853252200 12.1152703642964603 17.4800000000000004   T   T   T
  3.7795501563830816 19.5708213577096615 17.4800000000000004   T   T   T
  1.7775966488925004 15.8430458610030573 17.4800000000000004   T   T   T
  5.7815036638736643 23.2985968544162674 17.4800000000000004   T   T   T
  7.7834571713642493 27.0263723511228697 17.4800000000000040   T   T   T
  9.7854106788548325 30.7541478478294792 17.4800000000000040   T   T   T
  2.8130898424221140 34.4819233445360709 17.4800000000000040   T   T   T
  5.5571468052755826 35.4138672187127241 17.4800000000000040   T   T   T
  5.4881139257069425  1.8638877483533016 17.4800000000000004   T   T   T
  7.4900674331975257  5.5916632450599044 17.4800000000000004   T   T   T
  0.5177465967648078  9.3194387417665094 17.4800000000000004   T   T   T
  4.5216536117459718 16.7749897351797124 17.4800000000000004   T   T   T
  2.5197001042553908 13.0472142384731118 17.4800000000000004   T   T   T
  6.5236071192365515 20.5027652318863112 17.4800000000000004   T   T   T
  8.5255606267271382 24.2305407285929242 17.4800000000000040   T   T   T
  1.5532397902944193 27.9583162252995265 17.4800000000000004   T   T   T
  3.5551932977850034 31.6860917220061289 17.4800000000000040   T   T   T
  4.4871371719616508  0.0000000000000000 19.6078000000000010   T   T   T
  6.4890906794522332  3.7277754967066024 19.6078000000000010   T   T   T
  8.4910441869428155  7.4555509934132047 19.6078000000000010   T   T   T
  1.5187233505100983 11.1833264901198106 19.6078000000000010   T   T   T
  5.5226303654912616 18.6388774835330118 19.6078000000000010   T   T   T
  3.5206768580006793 14.9111019868264094 19.6078000000000010   T   T   T
  7.5245838729818431 22.3666529802396141 19.6078000000000010   T   T   T
  9.5265373804724298 26.0944284769462236 19.6078000000000046   T   T   T
  2.5542165440397095 29.8222039736528259 19.6078000000000046   T   T   T
  4.5561700515302936 33.5499794703594318 19.6078000000000046   T   T   T
  7.3002270143837622 34.4819233445360709 19.6078000000000046   T   T   T
  7.2311941348151221  0.9319438741766504 19.6078000000000010   T   T   T
  0.2588732983824028  4.6597193708832529 19.6078000000000010   T   T   T
  2.2608268058729872  8.3874948675898580 19.6078000000000010   T   T   T
  6.2647338208541532 15.8430458610030644 19.6078000000000010   T   T   T
  4.2627803133635709 12.1152703642964603 19.6078000000000010   T   T   T
  8.2666873283447337 19.5708213577096579 19.6078000000000010   T   T   T
  1.2943664919120164 23.2985968544162674 19.6078000000000010   T   T   T
  3.2963199994026007 27.0263723511228733 19.6078000000000010   T   T   T
  5.2982735068931781 30.7541478478294721 19.6078000000000046   T   T   T
  8.3012037681290565 36.3458110928893774 17.4800000000000040   T   T   T
  8.2321708885604146  2.7958316225299513 17.4800000000000004   T   T   T
  1.2598500521276947  6.5236071192365541 17.4800000000000004   T   T   T
  3.2618035596182797 10.2513826159431591 17.4800000000000004   T   T   T
  7.2657105745994448 17.7069336093563656 17.4800000000000004   T   T   T
  5.2637570671088580 13.9791581126497597 17.4800000000000004   T   T   T
  9.2676640820900236 21.4347091060629609 17.4800000000000040   T   T   T
  2.2953432456573086 25.1624846027695703 17.4800000000000004   T   T   T
  4.2972967531478883 28.8902600994761727 17.4800000000000040   T   T   T
  6.2992502606384724 32.6180355961827715 17.4800000000000040   T   T   T
  0.0000000000000000  0.0000000000000000 23.8634000000000022   T   T   T
  2.0019535074905828  3.7277754967066024 23.8634000000000022   T   T   T
  4.0039070149811655  7.4555509934132047 23.8634000000000022   T   T   T
  6.0058605224717496 11.1833264901198106 23.8634000000000022   T   T   T
  1.0354931935296112 18.6388774835330118 23.8634000000000022   T   T   T
  8.0078140299623310 14.9111019868264094 23.8634000000000022   T   T   T
  3.0374467010201913 22.3666529802396141 23.8634000000000022   T   T   T
  5.0394002085107772 26.0944284769462200 23.8634000000000057   T   T   T
  7.0413537160013586 29.8222039736528188 23.8634000000000057   T   T   T
  9.0433072234919436 33.5499794703594247 23.8634000000000057   T   T   T
  2.7440569628534712  0.9319438741766508 23.8634000000000022   T   T   T
  4.7460104703440535  4.6597193708832529 23.8634000000000022   T   T   T
  6.7479639778346368  8.3874948675898544 23.8634000000000022   T   T   T
  8.7499174853252200 12.1152703642964603 23.8634000000000022   T   T   T
  3.7795501563830816 19.5708213577096615 23.8634000000000022   T   T   T
  1.7775966488925004 15.8430458610030573 23.8634000000000022   T   T   T
  5.7815036638736643 23.2985968544162674 23.8634000000000022   T   T   T
  7.7834571713642493 27.0263723511228697 23.8634000000000057   T   T   T
  9.7854106788548325 30.7541478478294792 23.8634000000000057   T   T   T
  2.8130898424221140 34.4819233445360709 23.8634000000000057   T   T   T
  4.4871371719616508  0.0000000000000000 21.7356000000000016   T   T   T
  6.4890906794522332  3.7277754967066024 21.7356000000000016   T   T   T
  8.4910441869428155  7.4555509934132047 21.7356000000000016   T   T   T
  1.5187233505100983 11.1833264901198106 21.7356000000000016   T   T   T
  5.5226303654912616 18.6388774835330118 21.7356000000000016   T   T   T
  3.5206768580006793 14.9111019868264094 21.7356000000000016   T   T   T
  7.5245838729818431 22.3666529802396141 21.7356000000000016   T   T   T
  9.5265373804724298 26.0944284769462236 21.7356000000000051   T   T   T
  2.5542165440397095 29.8222039736528259 21.7356000000000051   T   T   T
  4.5561700515302936 33.5499794703594318 21.7356000000000051   T   T   T
  7.3002270143837622 34.4819233445360709 21.7356000000000051   T   T   T
  7.2311941348151221  0.9319438741766504 21.7356000000000016   T   T   T
  0.2588732983824028  4.6597193708832529 21.7356000000000016   T   T   T
  2.2608268058729872  8.3874948675898580 21.7356000000000016   T   T   T
  6.2647338208541532 15.8430458610030644 21.7356000000000016   T   T   T
  4.2627803133635709 12.1152703642964603 21.7356000000000016   T   T   T
  8.2666873283447337 19.5708213577096579 21.7356000000000016   T   T   T
  1.2943664919120164 23.2985968544162674 21.7356000000000016   T   T   T
  3.2963199994026007 27.0263723511228733 21.7356000000000016   T   T   T
  5.2982735068931781 30.7541478478294721 21.7356000000000051   T   T   T
  0.0000000000000000  0.0000000000000000 19.6078000000000010   T   T   T
  2.0019535074905828  3.7277754967066024 19.6078000000000010   T   T   T
  4.0039070149811655  7.4555509934132047 19.6078000000000010   T   T   T
  6.0058605224717496 11.1833264901198106 19.6078000000000010   T   T   T
  1.0354931935296112 18.6388774835330118 19.6078000000000010   T   T   T
  8.0078140299623310 14.9111019868264094 19.6078000000000010   T   T   T
  3.0374467010201913 22.3666529802396141 19.6078000000000010   T   T   T
  5.0394002085107772 26.0944284769462200 19.6078000000000046   T   T   T
  7.0413537160013586 29.8222039736528188 19.6078000000000046   T   T   T
  9.0433072234919436 33.5499794703594247 19.6078000000000046   T   T   T
  2.7440569628534712  0.9319438741766508 19.6078000000000010   T   T   T
  4.7460104703440535  4.6597193708832529 19.6078000000000010   T   T   T
  6.7479639778346368  8.3874948675898544 19.6078000000000010   T   T   T
  8.7499174853252200 12.1152703642964603 19.6078000000000010   T   T   T
  3.7795501563830816 19.5708213577096615 19.6078000000000010   T   T   T
  1.7775966488925004 15.8430458610030573 19.6078000000000010   T   T   T
  5.7815036638736643 23.2985968544162674 19.6078000000000010   T   T   T
  7.7834571713642493 27.0263723511228697 19.6078000000000046   T   T   T
  9.7854106788548325 30.7541478478294792 19.6078000000000046   T   T   T
  2.8130898424221140 34.4819233445360709 19.6078000000000046   T   T   T
  4.4871371719616508  0.0000000000000000 17.4800000000000004   T   T   T
  6.4890906794522332  3.7277754967066024 17.4800000000000004   T   T   T
  8.4910441869428155  7.4555509934132047 17.4800000000000004   T   T   T
  1.5187233505100983 11.1833264901198106 17.4800000000000004   T   T   T
  5.5226303654912616 18.6388774835330118 17.4800000000000004   T   T   T
  3.5206768580006793 14.9111019868264094 17.4800000000000004   T   T   T
  7.5245838729818431 22.3666529802396141 17.4800000000000004   T   T   T
  9.5265373804724298 26.0944284769462236 17.4800000000000040   T   T   T
  2.5542165440397095 29.8222039736528259 17.4800000000000040   T   T   T
  4.5561700515302936 33.5499794703594318 17.4800000000000040   T   T   T
  7.3002270143837622 34.4819233445360709 17.4800000000000040   T   T   T
  7.2311941348151221  0.9319438741766504 17.4800000000000004   T   T   T
  0.2588732983824028  4.6597193708832529 17.4800000000000004   T   T   T
  2.2608268058729872  8.3874948675898580 17.4800000000000004   T   T   T
  6.2647338208541532 15.8430458610030644 17.4800000000000004   T   T   T
  4.2627803133635709 12.1152703642964603 17.4800000000000004   T   T   T
  8.2666873283447337 19.5708213577096579 17.4800000000000004   T   T   T
  1.2943664919120164 23.2985968544162674 17.4800000000000004   T   T   T
  3.2963199994026007 27.0263723511228733 17.4800000000000004   T   T   T
  5.2982735068931781 30.7541478478294721 17.4800000000000040   T   T   T
