Mo B  Mo B  Mo B  Mo B  Mo B  Mo B  Mo B  Mo B  Mo B  Mo B  Mo B  Mo B  Mo B  Mo B  Mo B  Mo B  Mo B  Mo B  Mo B  Mo B  Mo B  Mo B  Mo B  Mo B  Mo B  Mo B  Mo B  Mo B  Mo B  Mo B  Mo B  Mo B  Mo B  Mo B  Mo B  Mo B  Mo B  Mo B  Mo B  Mo B  Mo B  Mo B  Mo B  Mo B  Mo B  Mo B  Mo B  Mo B  Mo B  Mo B  Mo B  Mo B  Mo B  Mo B  Mo B  Mo B  Mo B  Mo B  Mo B  Mo B  Mo B  Mo B  Mo B  Mo B 
 1.0000000000000000
    17.5645324446738407    0.0000000000000000    0.0000000000000000
     0.0000000000000000   67.8799999999999955    0.0000000000000000
     0.0000000000000000    0.0000000000000000   27.6844829445448077
 Mo  B   Mo  B   Mo  B   Mo  B   Mo  B   Mo  B   Mo  B   Mo  B   Mo  B   Mo  B   Mo  B   Mo  B   Mo  B   Mo  B   Mo  B   Mo  B   Mo  B   Mo  B   Mo  B   Mo  B   Mo  B   Mo  B   Mo  B   Mo  B   Mo  B   Mo  B   Mo  B   Mo  B   Mo  B   Mo  B   Mo  B   Mo  B   Mo  B   Mo  B   Mo  B   Mo  B   Mo  B   Mo  B   Mo  B   Mo  B   Mo  B   Mo  B   Mo  B   Mo  B   Mo  B   Mo  B   Mo  B   Mo  B   Mo  B   Mo  B   Mo  B   Mo  B   Mo  B   Mo  B   Mo  B   Mo  B   Mo  B   Mo  B   Mo  B   Mo  B   Mo  B   Mo  B   Mo  B   Mo  B  
   8   8   8   8   8   8   8   8   8   8   8   8   8   8   8   8   8   8   8   8   8   8   8   8   8   8   8   8   8   8   8   8   8   8   8   8   8   8   8   8   8   8   8   8   8   8   8   8   8   8   8   8   8   8   8   8   8   8   8   8   8   8   8   8   8   8   8   8   8   8   8   8   8   8   8   8   8   8   8   8   8   8   8   8   8   8   8   8   8   8   8   8   8   8   8   8   8   8   8   8   8   8   8   8   8   8   8   8   8   8   8   8   8   8   8   8   8   8   8   8   8   8   8   8   8   8   8   8
Selective dynamics
Cartesian
  1.0977832777921150  7.5855899999999998 11.0977832777921144   F   F   F
  2.1955665555842301 11.8280899999999978 10.0000000000000000   F   F   F
  0.0000000000000000 13.6269100000000005 10.0000000000000000   F   F   F
  1.0977832777921150  0.8994099999999987 11.0977832777921144   F   F   F
  3.2933498333763458 16.0705899999999993 11.0977832777921144   F   F   F
  3.2933498333763458  9.3844099999999990 11.0977832777921144   F   F   F
  2.1955665555842301  5.1419100000000002 10.0000000000000000   F   F   F
  0.0000000000000000  3.3430899999999988 10.0000000000000000   F   F   F
  1.0977832777921150 10.2159399999999998 11.0977832777921144   F   F   F
  2.1955665555842301 14.4584399999999995 10.0000000000000000   F   F   F
  0.0000000000000000 10.9965600000000023 10.0000000000000000   F   F   F
  1.0977832777921150 15.2390599999999949 11.0977832777921144   F   F   F
  3.2933498333763458  1.7309399999999995 11.0977832777921144   F   F   F
  3.2933498333763458  6.7540599999999982 11.0977832777921144   F   F   F
  2.1955665555842301  2.5115599999999985 10.0000000000000000   F   F   F
  0.0000000000000000  5.9734399999999992 10.0000000000000000   F   F   F
  3.2933498333763458  7.5855899999999998 13.2933498333763467   F   F   F
  0.0000000000000000 11.8280899999999978 12.1955665555842305   F   F   F
  2.1955665555842301 13.6269100000000005 12.1955665555842305   F   F   F
  3.2933498333763458  0.8994099999999985 13.2933498333763467   F   F   F
  1.0977832777921150 16.0705899999999993 13.2933498333763449   F   F   F
  1.0977832777921150  9.3844099999999990 13.2933498333763449   F   F   F
  0.0000000000000000  5.1419100000000002 12.1955665555842305   F   F   F
  2.1955665555842301  3.3430899999999988 12.1955665555842305   F   F   F
  3.2933498333763458 10.2159399999999998 13.2933498333763467   F   F   F
  0.0000000000000000 14.4584399999999995 12.1955665555842305   F   F   F
  2.1955665555842301 10.9965600000000023 12.1955665555842305   F   F   F
  3.2933498333763458 15.2390599999999949 13.2933498333763467   F   F   F
  1.0977832777921150  1.7309399999999993 13.2933498333763449   F   F   F
  1.0977832777921150  6.7540599999999982 13.2933498333763449   F   F   F
  0.0000000000000000  2.5115599999999985 12.1955665555842305   F   F   F
  2.1955665555842301  5.9734399999999992 12.1955665555842305   F   F   F
  1.0977832777921150  7.5855899999999998 15.4889163889605754   T   T   T
  2.1955665555842310 11.8280899999999978 14.3911331111684611   T   T   T
  0.0000000000000000 13.6269100000000005 14.3911331111684611   T   T   T
  1.0977832777921150  0.8994099999999984 15.4889163889605754   T   T   T
  3.2933498333763462 16.0705899999999993 15.4889163889605754   T   T   T
  3.2933498333763462  9.3844099999999990 15.4889163889605754   T   T   T
  2.1955665555842310  5.1419100000000002 14.3911331111684611   T   T   T
  0.0000000000000000  3.3430899999999983 14.3911331111684611   T   T   T
  1.0977832777921150 10.2159399999999998 15.4889163889605754   T   T   T
  2.1955665555842310 14.4584399999999995 14.3911331111684611   T   T   T
  0.0000000000000000 10.9965600000000023 14.3911331111684611   T   T   T
  1.0977832777921150 15.2390599999999949 15.4889163889605754   T   T   T
  3.2933498333763462  1.7309399999999990 15.4889163889605754   T   T   T
  3.2933498333763462  6.7540599999999982 15.4889163889605754   T   T   T
  2.1955665555842310  2.5115599999999980 14.3911331111684611   T   T   T
  0.0000000000000000  5.9734399999999992 14.3911331111684611   T   T   T
  3.2933498333763462  7.5855899999999989 17.6844829445448077   T   T   T
  0.0000000000000000 11.8280899999999978 16.5866996667526934   T   T   T
  2.1955665555842310 13.6269100000000005 16.5866996667526934   T   T   T
  3.2933498333763462  0.8994099999999982 17.6844829445448077   T   T   T
  1.0977832777921150 16.0705899999999993 17.6844829445448042   T   T   T
  1.0977832777921150  9.3844099999999990 17.6844829445448042   T   T   T
  0.0000000000000000  5.1419099999999993 16.5866996667526934   T   T   T
  2.1955665555842310  3.3430899999999983 16.5866996667526934   T   T   T
  3.2933498333763462 10.2159399999999998 17.6844829445448077   T   T   T
  0.0000000000000000 14.4584399999999995 16.5866996667526934   T   T   T
  2.1955665555842310 10.9965600000000023 16.5866996667526934   T   T   T
  3.2933498333763462 15.2390599999999949 17.6844829445448077   T   T   T
  1.0977832777921150  1.7309399999999988 17.6844829445448042   T   T   T
  1.0977832777921150  6.7540599999999973 17.6844829445448042   T   T   T
  0.0000000000000000  2.5115599999999980 16.5866996667526934   T   T   T
  2.1955665555842310  5.9734399999999983 16.5866996667526934   T   T   T
  1.0977832777921150 24.5555899999999987 11.0977832777921144   F   F   F
  2.1955665555842301 28.7980899999999949 10.0000000000000000   F   F   F
  0.0000000000000000 30.5969100000000012 10.0000000000000000   F   F   F
  1.0977832777921150 17.8694099999999985 11.0977832777921144   F   F   F
  3.2933498333763458 33.0405899999999946 11.0977832777921144   F   F   F
  3.2933498333763458 26.3544099999999979 11.0977832777921144   F   F   F
  2.1955665555842301 22.1119099999999982 10.0000000000000000   F   F   F
  0.0000000000000000 20.3130899999999990 10.0000000000000000   F   F   F
  1.0977832777921150 27.1859399999999987 11.0977832777921144   F   F   F
  2.1955665555842301 31.4284399999999984 10.0000000000000000   F   F   F
  0.0000000000000000 27.9665600000000012 10.0000000000000000   F   F   F
  1.0977832777921150 32.2090599999999938 11.0977832777921144   F   F   F
  3.2933498333763458 18.7009399999999992 11.0977832777921144   F   F   F
  3.2933498333763458 23.7240599999999979 11.0977832777921144   F   F   F
  2.1955665555842301 19.4815599999999982 10.0000000000000000   F   F   F
  0.0000000000000000 22.9434399999999989 10.0000000000000000   F   F   F
  3.2933498333763458 24.5555899999999987 13.2933498333763467   F   F   F
  0.0000000000000000 28.7980899999999949 12.1955665555842305   F   F   F
  2.1955665555842301 30.5969100000000012 12.1955665555842305   F   F   F
  3.2933498333763458 17.8694099999999985 13.2933498333763467   F   F   F
  1.0977832777921150 33.0405899999999946 13.2933498333763449   F   F   F
  1.0977832777921150 26.3544099999999979 13.2933498333763449   F   F   F
  0.0000000000000000 22.1119099999999982 12.1955665555842305   F   F   F
  2.1955665555842301 20.3130899999999990 12.1955665555842305   F   F   F
  3.2933498333763458 27.1859399999999987 13.2933498333763467   F   F   F
  0.0000000000000000 31.4284399999999984 12.1955665555842305   F   F   F
  2.1955665555842301 27.9665600000000012 12.1955665555842305   F   F   F
  3.2933498333763458 32.2090599999999938 13.2933498333763467   F   F   F
  1.0977832777921150 18.7009399999999992 13.2933498333763449   F   F   F
  1.0977832777921150 23.7240599999999979 13.2933498333763449   F   F   F
  0.0000000000000000 19.4815599999999982 12.1955665555842305   F   F   F
  2.1955665555842301 22.9434399999999989 12.1955665555842305   F   F   F
  1.0977832777921150 24.5555899999999987 15.4889163889605754   T   T   T
  2.1955665555842310 28.7980899999999949 14.3911331111684611   T   T   T
  0.0000000000000000 30.5969100000000012 14.3911331111684611   T   T   T
  1.0977832777921150 17.8694099999999985 15.4889163889605754   T   T   T
  3.2933498333763462 33.0405899999999946 15.4889163889605754   T   T   T
  3.2933498333763462 26.3544099999999979 15.4889163889605754   T   T   T
  2.1955665555842310 22.1119099999999982 14.3911331111684611   T   T   T
  0.0000000000000000 20.3130899999999954 14.3911331111684611   T   T   T
  1.0977832777921150 27.1859399999999987 15.4889163889605754   T   T   T
  2.1955665555842310 31.4284399999999984 14.3911331111684611   T   T   T
  0.0000000000000000 27.9665600000000012 14.3911331111684611   T   T   T
  1.0977832777921150 32.2090599999999938 15.4889163889605754   T   T   T
  3.2933498333763462 18.7009399999999992 15.4889163889605754   T   T   T
  3.2933498333763462 23.7240599999999979 15.4889163889605754   T   T   T
  2.1955665555842310 19.4815599999999982 14.3911331111684611   T   T   T
  0.0000000000000000 22.9434399999999989 14.3911331111684611   T   T   T
  3.2933498333763462 24.5555899999999987 17.6844829445448077   T   T   T
  0.0000000000000000 28.7980899999999949 16.5866996667526934   T   T   T
  2.1955665555842310 30.5969100000000012 16.5866996667526934   T   T   T
  3.2933498333763462 17.8694099999999985 17.6844829445448077   T   T   T
  1.0977832777921150 33.0405899999999946 17.6844829445448042   T   T   T
  1.0977832777921150 26.3544099999999979 17.6844829445448042   T   T   T
  0.0000000000000000 22.1119099999999982 16.5866996667526934   T   T   T
  2.1955665555842310 20.3130899999999954 16.5866996667526934   T   T   T
  3.2933498333763462 27.1859399999999987 17.6844829445448077   T   T   T
  0.0000000000000000 31.4284399999999984 16.5866996667526934   T   T   T
  2.1955665555842310 27.9665600000000012 16.5866996667526934   T   T   T
  3.2933498333763462 32.2090599999999938 17.6844829445448077   T   T   T
  1.0977832777921150 18.7009399999999992 17.6844829445448042   T   T   T
  1.0977832777921150 23.7240599999999944 17.6844829445448042   T   T   T
  0.0000000000000000 19.4815599999999982 16.5866996667526934   T   T   T
  2.1955665555842310 22.9434399999999954 16.5866996667526934   T   T   T
  1.0977832777921150 41.5255899999999940 11.0977832777921144   F   F   F
  2.1955665555842301 45.7680899999999937 10.0000000000000000   F   F   F
  0.0000000000000000 47.5669100000000000 10.0000000000000000   F   F   F
  1.0977832777921150 34.8394099999999938 11.0977832777921144   F   F   F
  3.2933498333763458 50.0105899999999934 11.0977832777921144   F   F   F
  3.2933498333763458 43.3244100000000003 11.0977832777921144   F   F   F
  2.1955665555842301 39.0819100000000006 10.0000000000000000   F   F   F
  0.0000000000000000 37.2830899999999943 10.0000000000000000   F   F   F
  1.0977832777921150 44.1559400000000011 11.0977832777921144   F   F   F
  2.1955665555842301 48.3984399999999937 10.0000000000000000   F   F   F
  0.0000000000000000 44.9365600000000001 10.0000000000000000   F   F   F
  1.0977832777921150 49.1790599999999927 11.0977832777921144   F   F   F
  3.2933498333763458 35.6709399999999945 11.0977832777921144   F   F   F
  3.2933498333763458 40.6940599999999932 11.0977832777921144   F   F   F
  2.1955665555842301 36.4515599999999935 10.0000000000000000   F   F   F
  0.0000000000000000 39.9134399999999943 10.0000000000000000   F   F   F
  3.2933498333763458 41.5255899999999940 13.2933498333763467   F   F   F
  0.0000000000000000 45.7680899999999937 12.1955665555842305   F   F   F
  2.1955665555842301 47.5669100000000000 12.1955665555842305   F   F   F
  3.2933498333763458 34.8394099999999938 13.2933498333763467   F   F   F
  1.0977832777921150 50.0105899999999934 13.2933498333763449   F   F   F
  1.0977832777921150 43.3244100000000003 13.2933498333763449   F   F   F
  0.0000000000000000 39.0819100000000006 12.1955665555842305   F   F   F
  2.1955665555842301 37.2830899999999943 12.1955665555842305   F   F   F
  3.2933498333763458 44.1559400000000011 13.2933498333763467   F   F   F
  0.0000000000000000 48.3984399999999937 12.1955665555842305   F   F   F
  2.1955665555842301 44.9365600000000001 12.1955665555842305   F   F   F
  3.2933498333763458 49.1790599999999927 13.2933498333763467   F   F   F
  1.0977832777921150 35.6709399999999945 13.2933498333763449   F   F   F
  1.0977832777921150 40.6940599999999932 13.2933498333763449   F   F   F
  0.0000000000000000 36.4515599999999935 12.1955665555842305   F   F   F
  2.1955665555842301 39.9134399999999943 12.1955665555842305   F   F   F
  1.0977832777921150 41.5255899999999940 15.4889163889605754   T   T   T
  2.1955665555842310 45.7680899999999937 14.3911331111684611   T   T   T
  0.0000000000000000 47.5669100000000000 14.3911331111684611   T   T   T
  1.0977832777921150 34.8394099999999938 15.4889163889605754   T   T   T
  3.2933498333763462 50.0105899999999934 15.4889163889605754   T   T   T
  3.2933498333763462 43.3244100000000003 15.4889163889605754   T   T   T
  2.1955665555842310 39.0819100000000006 14.3911331111684611   T   T   T
  0.0000000000000000 37.2830899999999943 14.3911331111684611   T   T   T
  1.0977832777921150 44.1559400000000011 15.4889163889605754   T   T   T
  2.1955665555842310 48.3984399999999937 14.3911331111684611   T   T   T
  0.0000000000000000 44.9365600000000001 14.3911331111684611   T   T   T
  1.0977832777921150 49.1790599999999927 15.4889163889605754   T   T   T
  3.2933498333763462 35.6709399999999945 15.4889163889605754   T   T   T
  3.2933498333763462 40.6940599999999932 15.4889163889605754   T   T   T
  2.1955665555842310 36.4515599999999935 14.3911331111684611   T   T   T
  0.0000000000000000 39.9134399999999943 14.3911331111684611   T   T   T
  3.2933498333763462 41.5255899999999940 17.6844829445448077   T   T   T
  0.0000000000000000 45.7680899999999937 16.5866996667526934   T   T   T
  2.1955665555842310 47.5669100000000000 16.5866996667526934   T   T   T
  3.2933498333763462 34.8394099999999938 17.6844829445448077   T   T   T
  1.0977832777921150 50.0105899999999934 17.6844829445448042   T   T   T
  1.0977832777921150 43.3244100000000003 17.6844829445448042   T   T   T
  0.0000000000000000 39.0819099999999935 16.5866996667526934   T   T   T
  2.1955665555842310 37.2830899999999943 16.5866996667526934   T   T   T
  3.2933498333763462 44.1559400000000011 17.6844829445448077   T   T   T
  0.0000000000000000 48.3984399999999937 16.5866996667526934   T   T   T
  2.1955665555842310 44.9365600000000001 16.5866996667526934   T   T   T
  3.2933498333763462 49.1790599999999927 17.6844829445448077   T   T   T
  1.0977832777921150 35.6709399999999945 17.6844829445448042   T   T   T
  1.0977832777921150 40.6940599999999932 17.6844829445448042   T   T   T
  0.0000000000000000 36.4515599999999935 16.5866996667526934   T   T   T
  2.1955665555842310 39.9134399999999943 16.5866996667526934   T   T   T
  1.0977832777921150 58.4955899999999929 11.0977832777921144   F   F   F
  2.1955665555842301 62.7380899999999926 10.0000000000000000   F   F   F
  0.0000000000000000 64.5369099999999918 10.0000000000000000   F   F   F
  1.0977832777921150 51.8094099999999926 11.0977832777921144   F   F   F
  3.2933498333763458 66.9805899999999923 11.0977832777921144   F   F   F
  3.2933498333763458 60.2944099999999992 11.0977832777921144   F   F   F
  2.1955665555842301 56.0519099999999995 10.0000000000000000   F   F   F
  0.0000000000000000 54.2530899999999932 10.0000000000000000   F   F   F
  1.0977832777921150 61.1259399999999999 11.0977832777921144   F   F   F
  2.1955665555842301 65.3684399999999926 10.0000000000000000   F   F   F
  0.0000000000000000 61.9065599999999989 10.0000000000000000   F   F   F
  1.0977832777921150 66.1490599999999915 11.0977832777921144   F   F   F
  3.2933498333763458 52.6409399999999934 11.0977832777921144   F   F   F
  3.2933498333763458 57.6640599999999921 11.0977832777921144   F   F   F
  2.1955665555842301 53.4215599999999924 10.0000000000000000   F   F   F
  0.0000000000000000 56.8834399999999931 10.0000000000000000   F   F   F
  3.2933498333763458 58.4955899999999929 13.2933498333763467   F   F   F
  0.0000000000000000 62.7380899999999926 12.1955665555842305   F   F   F
  2.1955665555842301 64.5369099999999918 12.1955665555842305   F   F   F
  3.2933498333763458 51.8094099999999926 13.2933498333763467   F   F   F
  1.0977832777921150 66.9805899999999923 13.2933498333763449   F   F   F
  1.0977832777921150 60.2944099999999992 13.2933498333763449   F   F   F
  0.0000000000000000 56.0519099999999995 12.1955665555842305   F   F   F
  2.1955665555842301 54.2530899999999932 12.1955665555842305   F   F   F
  3.2933498333763458 61.1259399999999999 13.2933498333763467   F   F   F
  0.0000000000000000 65.3684399999999926 12.1955665555842305   F   F   F
  2.1955665555842301 61.9065599999999989 12.1955665555842305   F   F   F
  3.2933498333763458 66.1490599999999915 13.2933498333763467   F   F   F
  1.0977832777921150 52.6409399999999934 13.2933498333763449   F   F   F
  1.0977832777921150 57.6640599999999921 13.2933498333763449   F   F   F
  0.0000000000000000 53.4215599999999924 12.1955665555842305   F   F   F
  2.1955665555842301 56.8834399999999931 12.1955665555842305   F   F   F
  1.0977832777921150 58.4955899999999929 15.4889163889605754   T   T   T
  2.1955665555842310 62.7380899999999926 14.3911331111684611   T   T   T
  0.0000000000000000 64.5369099999999918 14.3911331111684611   T   T   T
  1.0977832777921150 51.8094099999999926 15.4889163889605754   T   T   T
  3.2933498333763462 66.9805899999999923 15.4889163889605754   T   T   T
  3.2933498333763462 60.2944099999999992 15.4889163889605754   T   T   T
  2.1955665555842310 56.0519099999999995 14.3911331111684611   T   T   T
  0.0000000000000000 54.2530899999999932 14.3911331111684611   T   T   T
  1.0977832777921150 61.1259399999999999 15.4889163889605754   T   T   T
  2.1955665555842310 65.3684399999999926 14.3911331111684611   T   T   T
  0.0000000000000000 61.9065599999999989 14.3911331111684611   T   T   T
  1.0977832777921150 66.1490599999999915 15.4889163889605754   T   T   T
  3.2933498333763462 52.6409399999999934 15.4889163889605754   T   T   T
  3.2933498333763462 57.6640599999999921 15.4889163889605754   T   T   T
  2.1955665555842310 53.4215599999999924 14.3911331111684611   T   T   T
  0.0000000000000000 56.8834399999999931 14.3911331111684611   T   T   T
  3.2933498333763462 58.4955899999999929 17.6844829445448077   T   T   T
  0.0000000000000000 62.7380899999999926 16.5866996667526934   T   T   T
  2.1955665555842310 64.5369099999999918 16.5866996667526934   T   T   T
  3.2933498333763462 51.8094099999999926 17.6844829445448077   T   T   T
  1.0977832777921150 66.9805899999999923 17.6844829445448042   T   T   T
  1.0977832777921150 60.2944099999999992 17.6844829445448042   T   T   T
  0.0000000000000000 56.0519099999999924 16.5866996667526934   T   T   T
  2.1955665555842310 54.2530899999999932 16.5866996667526934   T   T   T
  3.2933498333763462 61.1259399999999999 17.6844829445448077   T   T   T
  0.0000000000000000 65.3684399999999926 16.5866996667526934   T   T   T
  2.1955665555842310 61.9065599999999989 16.5866996667526934   T   T   T
  3.2933498333763462 66.1490599999999915 17.6844829445448077   T   T   T
  1.0977832777921150 52.6409399999999934 17.6844829445448042   T   T   T
  1.0977832777921150 57.6640599999999921 17.6844829445448042   T   T   T
  0.0000000000000000 53.4215599999999924 16.5866996667526934   T   T   T
  2.1955665555842310 56.8834399999999931 16.5866996667526934   T   T   T
  5.4889163889605754  7.5855899999999998 11.0977832777921144   F   F   F
  6.5866996667526898 11.8280899999999978 10.0000000000000000   F   F   F
  4.3911331111684602 13.6269100000000005 10.0000000000000000   F   F   F
  5.4889163889605754  0.8994099999999987 11.0977832777921144   F   F   F
  7.6844829445448060 16.0705899999999993 11.0977832777921144   F   F   F
  7.6844829445448060  9.3844099999999990 11.0977832777921144   F   F   F
  6.5866996667526898  5.1419100000000002 10.0000000000000000   F   F   F
  4.3911331111684602  3.3430899999999988 10.0000000000000000   F   F   F
  5.4889163889605754 10.2159399999999998 11.0977832777921144   F   F   F
  6.5866996667526898 14.4584399999999995 10.0000000000000000   F   F   F
  4.3911331111684602 10.9965600000000023 10.0000000000000000   F   F   F
  5.4889163889605754 15.2390599999999949 11.0977832777921144   F   F   F
  7.6844829445448060  1.7309399999999995 11.0977832777921144   F   F   F
  7.6844829445448060  6.7540599999999982 11.0977832777921144   F   F   F
  6.5866996667526898  2.5115599999999985 10.0000000000000000   F   F   F
  4.3911331111684602  5.9734399999999992 10.0000000000000000   F   F   F
  7.6844829445448060  7.5855899999999998 13.2933498333763467   F   F   F
  4.3911331111684602 11.8280899999999978 12.1955665555842305   F   F   F
  6.5866996667526898 13.6269100000000005 12.1955665555842305   F   F   F
  7.6844829445448060  0.8994099999999985 13.2933498333763467   F   F   F
  5.4889163889605754 16.0705899999999993 13.2933498333763449   F   F   F
  5.4889163889605754  9.3844099999999990 13.2933498333763449   F   F   F
  4.3911331111684602  5.1419100000000002 12.1955665555842305   F   F   F
  6.5866996667526898  3.3430899999999988 12.1955665555842305   F   F   F
  7.6844829445448060 10.2159399999999998 13.2933498333763467   F   F   F
  4.3911331111684602 14.4584399999999995 12.1955665555842305   F   F   F
  6.5866996667526898 10.9965600000000023 12.1955665555842305   F   F   F
  7.6844829445448060 15.2390599999999949 13.2933498333763467   F   F   F
  5.4889163889605754  1.7309399999999993 13.2933498333763449   F   F   F
  5.4889163889605754  6.7540599999999982 13.2933498333763449   F   F   F
  4.3911331111684602  2.5115599999999985 12.1955665555842305   F   F   F
  6.5866996667526898  5.9734399999999992 12.1955665555842305   F   F   F
  5.4889163889605754  7.5855899999999998 15.4889163889605754   T   T   T
  6.5866996667526916 11.8280899999999978 14.3911331111684611   T   T   T
  4.3911331111684602 13.6269100000000005 14.3911331111684611   T   T   T
  5.4889163889605754  0.8994099999999984 15.4889163889605754   T   T   T
  7.6844829445448060 16.0705899999999993 15.4889163889605754   T   T   T
  7.6844829445448060  9.3844099999999990 15.4889163889605754   T   T   T
  6.5866996667526916  5.1419100000000002 14.3911331111684611   T   T   T
  4.3911331111684602  3.3430899999999983 14.3911331111684611   T   T   T
  5.4889163889605754 10.2159399999999998 15.4889163889605754   T   T   T
  6.5866996667526916 14.4584399999999995 14.3911331111684611   T   T   T
  4.3911331111684602 10.9965600000000023 14.3911331111684611   T   T   T
  5.4889163889605754 15.2390599999999949 15.4889163889605754   T   T   T
  7.6844829445448060  1.7309399999999990 15.4889163889605754   T   T   T
  7.6844829445448060  6.7540599999999982 15.4889163889605754   T   T   T
  6.5866996667526916  2.5115599999999980 14.3911331111684611   T   T   T
  4.3911331111684602  5.9734399999999992 14.3911331111684611   T   T   T
  7.6844829445448060  7.5855899999999989 17.6844829445448077   T   T   T
  4.3911331111684602 11.8280899999999978 16.5866996667526934   T   T   T
  6.5866996667526916 13.6269100000000005 16.5866996667526934   T   T   T
  7.6844829445448060  0.8994099999999982 17.6844829445448077   T   T   T
  5.4889163889605754 16.0705899999999993 17.6844829445448042   T   T   T
  5.4889163889605754  9.3844099999999990 17.6844829445448042   T   T   T
  4.3911331111684602  5.1419099999999993 16.5866996667526934   T   T   T
  6.5866996667526916  3.3430899999999983 16.5866996667526934   T   T   T
  7.6844829445448060 10.2159399999999998 17.6844829445448077   T   T   T
  4.3911331111684602 14.4584399999999995 16.5866996667526934   T   T   T
  6.5866996667526916 10.9965600000000023 16.5866996667526934   T   T   T
  7.6844829445448060 15.2390599999999949 17.6844829445448077   T   T   T
  5.4889163889605754  1.7309399999999988 17.6844829445448042   T   T   T
  5.4889163889605754  6.7540599999999973 17.6844829445448042   T   T   T
  4.3911331111684602  2.5115599999999980 16.5866996667526934   T   T   T
  6.5866996667526916  5.9734399999999983 16.5866996667526934   T   T   T
  5.4889163889605754 24.5555899999999987 11.0977832777921144   F   F   F
  6.5866996667526898 28.7980899999999949 10.0000000000000000   F   F   F
  4.3911331111684602 30.5969100000000012 10.0000000000000000   F   F   F
  5.4889163889605754 17.8694099999999985 11.0977832777921144   F   F   F
  7.6844829445448060 33.0405899999999946 11.0977832777921144   F   F   F
  7.6844829445448060 26.3544099999999979 11.0977832777921144   F   F   F
  6.5866996667526898 22.1119099999999982 10.0000000000000000   F   F   F
  4.3911331111684602 20.3130899999999990 10.0000000000000000   F   F   F
  5.4889163889605754 27.1859399999999987 11.0977832777921144   F   F   F
  6.5866996667526898 31.4284399999999984 10.0000000000000000   F   F   F
  4.3911331111684602 27.9665600000000012 10.0000000000000000   F   F   F
  5.4889163889605754 32.2090599999999938 11.0977832777921144   F   F   F
  7.6844829445448060 18.7009399999999992 11.0977832777921144   F   F   F
  7.6844829445448060 23.7240599999999979 11.0977832777921144   F   F   F
  6.5866996667526898 19.4815599999999982 10.0000000000000000   F   F   F
  4.3911331111684602 22.9434399999999989 10.0000000000000000   F   F   F
  7.6844829445448060 24.5555899999999987 13.2933498333763467   F   F   F
  4.3911331111684602 28.7980899999999949 12.1955665555842305   F   F   F
  6.5866996667526898 30.5969100000000012 12.1955665555842305   F   F   F
  7.6844829445448060 17.8694099999999985 13.2933498333763467   F   F   F
  5.4889163889605754 33.0405899999999946 13.2933498333763449   F   F   F
  5.4889163889605754 26.3544099999999979 13.2933498333763449   F   F   F
  4.3911331111684602 22.1119099999999982 12.1955665555842305   F   F   F
  6.5866996667526898 20.3130899999999990 12.1955665555842305   F   F   F
  7.6844829445448060 27.1859399999999987 13.2933498333763467   F   F   F
  4.3911331111684602 31.4284399999999984 12.1955665555842305   F   F   F
  6.5866996667526898 27.9665600000000012 12.1955665555842305   F   F   F
  7.6844829445448060 32.2090599999999938 13.2933498333763467   F   F   F
  5.4889163889605754 18.7009399999999992 13.2933498333763449   F   F   F
  5.4889163889605754 23.7240599999999979 13.2933498333763449   F   F   F
  4.3911331111684602 19.4815599999999982 12.1955665555842305   F   F   F
  6.5866996667526898 22.9434399999999989 12.1955665555842305   F   F   F
  5.4889163889605754 24.5555899999999987 15.4889163889605754   T   T   T
  6.5866996667526916 28.7980899999999949 14.3911331111684611   T   T   T
  4.3911331111684602 30.5969100000000012 14.3911331111684611   T   T   T
  5.4889163889605754 17.8694099999999985 15.4889163889605754   T   T   T
  7.6844829445448060 33.0405899999999946 15.4889163889605754   T   T   T
  7.6844829445448060 26.3544099999999979 15.4889163889605754   T   T   T
  6.5866996667526916 22.1119099999999982 14.3911331111684611   T   T   T
  4.3911331111684602 20.3130899999999954 14.3911331111684611   T   T   T
  5.4889163889605754 27.1859399999999987 15.4889163889605754   T   T   T
  6.5866996667526916 31.4284399999999984 14.3911331111684611   T   T   T
  4.3911331111684602 27.9665600000000012 14.3911331111684611   T   T   T
  5.4889163889605754 32.2090599999999938 15.4889163889605754   T   T   T
  7.6844829445448060 18.7009399999999992 15.4889163889605754   T   T   T
  7.6844829445448060 23.7240599999999979 15.4889163889605754   T   T   T
  6.5866996667526916 19.4815599999999982 14.3911331111684611   T   T   T
  4.3911331111684602 22.9434399999999989 14.3911331111684611   T   T   T
  7.6844829445448060 24.5555899999999987 17.6844829445448077   T   T   T
  4.3911331111684602 28.7980899999999949 16.5866996667526934   T   T   T
  6.5866996667526916 30.5969100000000012 16.5866996667526934   T   T   T
  7.6844829445448060 17.8694099999999985 17.6844829445448077   T   T   T
  5.4889163889605754 33.0405899999999946 17.6844829445448042   T   T   T
  5.4889163889605754 26.3544099999999979 17.6844829445448042   T   T   T
  4.3911331111684602 22.1119099999999982 16.5866996667526934   T   T   T
  6.5866996667526916 20.3130899999999954 16.5866996667526934   T   T   T
  7.6844829445448060 27.1859399999999987 17.6844829445448077   T   T   T
  4.3911331111684602 31.4284399999999984 16.5866996667526934   T   T   T
  6.5866996667526916 27.9665600000000012 16.5866996667526934   T   T   T
  7.6844829445448060 32.2090599999999938 17.6844829445448077   T   T   T
  5.4889163889605754 18.7009399999999992 17.6844829445448042   T   T   T
  5.4889163889605754 23.7240599999999944 17.6844829445448042   T   T   T
  4.3911331111684602 19.4815599999999982 16.5866996667526934   T   T   T
  6.5866996667526916 22.9434399999999954 16.5866996667526934   T   T   T
  5.4889163889605754 41.5255899999999940 11.0977832777921144   F   F   F
  6.5866996667526898 45.7680899999999937 10.0000000000000000   F   F   F
  4.3911331111684602 47.5669100000000000 10.0000000000000000   F   F   F
  5.4889163889605754 34.8394099999999938 11.0977832777921144   F   F   F
  7.6844829445448060 50.0105899999999934 11.0977832777921144   F   F   F
  7.6844829445448060 43.3244100000000003 11.0977832777921144   F   F   F
  6.5866996667526898 39.0819100000000006 10.0000000000000000   F   F   F
  4.3911331111684602 37.2830899999999943 10.0000000000000000   F   F   F
  5.4889163889605754 44.1559400000000011 11.0977832777921144   F   F   F
  6.5866996667526898 48.3984399999999937 10.0000000000000000   F   F   F
  4.3911331111684602 44.9365600000000001 10.0000000000000000   F   F   F
  5.4889163889605754 49.1790599999999927 11.0977832777921144   F   F   F
  7.6844829445448060 35.6709399999999945 11.0977832777921144   F   F   F
  7.6844829445448060 40.6940599999999932 11.0977832777921144   F   F   F
  6.5866996667526898 36.4515599999999935 10.0000000000000000   F   F   F
  4.3911331111684602 39.9134399999999943 10.0000000000000000   F   F   F
  7.6844829445448060 41.5255899999999940 13.2933498333763467   F   F   F
  4.3911331111684602 45.7680899999999937 12.1955665555842305   F   F   F
  6.5866996667526898 47.5669100000000000 12.1955665555842305   F   F   F
  7.6844829445448060 34.8394099999999938 13.2933498333763467   F   F   F
  5.4889163889605754 50.0105899999999934 13.2933498333763449   F   F   F
  5.4889163889605754 43.3244100000000003 13.2933498333763449   F   F   F
  4.3911331111684602 39.0819100000000006 12.1955665555842305   F   F   F
  6.5866996667526898 37.2830899999999943 12.1955665555842305   F   F   F
  7.6844829445448060 44.1559400000000011 13.2933498333763467   F   F   F
  4.3911331111684602 48.3984399999999937 12.1955665555842305   F   F   F
  6.5866996667526898 44.9365600000000001 12.1955665555842305   F   F   F
  7.6844829445448060 49.1790599999999927 13.2933498333763467   F   F   F
  5.4889163889605754 35.6709399999999945 13.2933498333763449   F   F   F
  5.4889163889605754 40.6940599999999932 13.2933498333763449   F   F   F
  4.3911331111684602 36.4515599999999935 12.1955665555842305   F   F   F
  6.5866996667526898 39.9134399999999943 12.1955665555842305   F   F   F
  5.4889163889605754 41.5255899999999940 15.4889163889605754   T   T   T
  6.5866996667526916 45.7680899999999937 14.3911331111684611   T   T   T
  4.3911331111684602 47.5669100000000000 14.3911331111684611   T   T   T
  5.4889163889605754 34.8394099999999938 15.4889163889605754   T   T   T
  7.6844829445448060 50.0105899999999934 15.4889163889605754   T   T   T
  7.6844829445448060 43.3244100000000003 15.4889163889605754   T   T   T
  6.5866996667526916 39.0819100000000006 14.3911331111684611   T   T   T
  4.3911331111684602 37.2830899999999943 14.3911331111684611   T   T   T
  5.4889163889605754 44.1559400000000011 15.4889163889605754   T   T   T
  6.5866996667526916 48.3984399999999937 14.3911331111684611   T   T   T
  4.3911331111684602 44.9365600000000001 14.3911331111684611   T   T   T
  5.4889163889605754 49.1790599999999927 15.4889163889605754   T   T   T
  7.6844829445448060 35.6709399999999945 15.4889163889605754   T   T   T
  7.6844829445448060 40.6940599999999932 15.4889163889605754   T   T   T
  6.5866996667526916 36.4515599999999935 14.3911331111684611   T   T   T
  4.3911331111684602 39.9134399999999943 14.3911331111684611   T   T   T
  7.6844829445448060 41.5255899999999940 17.6844829445448077   T   T   T
  4.3911331111684602 45.7680899999999937 16.5866996667526934   T   T   T
  6.5866996667526916 47.5669100000000000 16.5866996667526934   T   T   T
  7.6844829445448060 34.8394099999999938 17.6844829445448077   T   T   T
  5.4889163889605754 50.0105899999999934 17.6844829445448042   T   T   T
  5.4889163889605754 43.3244100000000003 17.6844829445448042   T   T   T
  4.3911331111684602 39.0819099999999935 16.5866996667526934   T   T   T
  6.5866996667526916 37.2830899999999943 16.5866996667526934   T   T   T
  7.6844829445448060 44.1559400000000011 17.6844829445448077   T   T   T
  4.3911331111684602 48.3984399999999937 16.5866996667526934   T   T   T
  6.5866996667526916 44.9365600000000001 16.5866996667526934   T   T   T
  7.6844829445448060 49.1790599999999927 17.6844829445448077   T   T   T
  5.4889163889605754 35.6709399999999945 17.6844829445448042   T   T   T
  5.4889163889605754 40.6940599999999932 17.6844829445448042   T   T   T
  4.3911331111684602 36.4515599999999935 16.5866996667526934   T   T   T
  6.5866996667526916 39.9134399999999943 16.5866996667526934   T   T   T
  5.4889163889605754 58.4955899999999929 11.0977832777921144   F   F   F
  6.5866996667526898 62.7380899999999926 10.0000000000000000   F   F   F
  4.3911331111684602 64.5369099999999918 10.0000000000000000   F   F   F
  5.4889163889605754 51.8094099999999926 11.0977832777921144   F   F   F
  7.6844829445448060 66.9805899999999923 11.0977832777921144   F   F   F
  7.6844829445448060 60.2944099999999992 11.0977832777921144   F   F   F
  6.5866996667526898 56.0519099999999995 10.0000000000000000   F   F   F
  4.3911331111684602 54.2530899999999932 10.0000000000000000   F   F   F
  5.4889163889605754 61.1259399999999999 11.0977832777921144   F   F   F
  6.5866996667526898 65.3684399999999926 10.0000000000000000   F   F   F
  4.3911331111684602 61.9065599999999989 10.0000000000000000   F   F   F
  5.4889163889605754 66.1490599999999915 11.0977832777921144   F   F   F
  7.6844829445448060 52.6409399999999934 11.0977832777921144   F   F   F
  7.6844829445448060 57.6640599999999921 11.0977832777921144   F   F   F
  6.5866996667526898 53.4215599999999924 10.0000000000000000   F   F   F
  4.3911331111684602 56.8834399999999931 10.0000000000000000   F   F   F
  7.6844829445448060 58.4955899999999929 13.2933498333763467   F   F   F
  4.3911331111684602 62.7380899999999926 12.1955665555842305   F   F   F
  6.5866996667526898 64.5369099999999918 12.1955665555842305   F   F   F
  7.6844829445448060 51.8094099999999926 13.2933498333763467   F   F   F
  5.4889163889605754 66.9805899999999923 13.2933498333763449   F   F   F
  5.4889163889605754 60.2944099999999992 13.2933498333763449   F   F   F
  4.3911331111684602 56.0519099999999995 12.1955665555842305   F   F   F
  6.5866996667526898 54.2530899999999932 12.1955665555842305   F   F   F
  7.6844829445448060 61.1259399999999999 13.2933498333763467   F   F   F
  4.3911331111684602 65.3684399999999926 12.1955665555842305   F   F   F
  6.5866996667526898 61.9065599999999989 12.1955665555842305   F   F   F
  7.6844829445448060 66.1490599999999915 13.2933498333763467   F   F   F
  5.4889163889605754 52.6409399999999934 13.2933498333763449   F   F   F
  5.4889163889605754 57.6640599999999921 13.2933498333763449   F   F   F
  4.3911331111684602 53.4215599999999924 12.1955665555842305   F   F   F
  6.5866996667526898 56.8834399999999931 12.1955665555842305   F   F   F
  5.4889163889605754 58.4955899999999929 15.4889163889605754   T   T   T
  6.5866996667526916 62.7380899999999926 14.3911331111684611   T   T   T
  4.3911331111684602 64.5369099999999918 14.3911331111684611   T   T   T
  5.4889163889605754 51.8094099999999926 15.4889163889605754   T   T   T
  7.6844829445448060 66.9805899999999923 15.4889163889605754   T   T   T
  7.6844829445448060 60.2944099999999992 15.4889163889605754   T   T   T
  6.5866996667526916 56.0519099999999995 14.3911331111684611   T   T   T
  4.3911331111684602 54.2530899999999932 14.3911331111684611   T   T   T
  5.4889163889605754 61.1259399999999999 15.4889163889605754   T   T   T
  6.5866996667526916 65.3684399999999926 14.3911331111684611   T   T   T
  4.3911331111684602 61.9065599999999989 14.3911331111684611   T   T   T
  5.4889163889605754 66.1490599999999915 15.4889163889605754   T   T   T
  7.6844829445448060 52.6409399999999934 15.4889163889605754   T   T   T
  7.6844829445448060 57.6640599999999921 15.4889163889605754   T   T   T
  6.5866996667526916 53.4215599999999924 14.3911331111684611   T   T   T
  4.3911331111684602 56.8834399999999931 14.3911331111684611   T   T   T
  7.6844829445448060 58.4955899999999929 17.6844829445448077   T   T   T
  4.3911331111684602 62.7380899999999926 16.5866996667526934   T   T   T
  6.5866996667526916 64.5369099999999918 16.5866996667526934   T   T   T
  7.6844829445448060 51.8094099999999926 17.6844829445448077   T   T   T
  5.4889163889605754 66.9805899999999923 17.6844829445448042   T   T   T
  5.4889163889605754 60.2944099999999992 17.6844829445448042   T   T   T
  4.3911331111684602 56.0519099999999924 16.5866996667526934   T   T   T
  6.5866996667526916 54.2530899999999932 16.5866996667526934   T   T   T
  7.6844829445448060 61.1259399999999999 17.6844829445448077   T   T   T
  4.3911331111684602 65.3684399999999926 16.5866996667526934   T   T   T
  6.5866996667526916 61.9065599999999989 16.5866996667526934   T   T   T
  7.6844829445448060 66.1490599999999915 17.6844829445448077   T   T   T
  5.4889163889605754 52.6409399999999934 17.6844829445448042   T   T   T
  5.4889163889605754 57.6640599999999921 17.6844829445448042   T   T   T
  4.3911331111684602 53.4215599999999924 16.5866996667526934   T   T   T
  6.5866996667526916 56.8834399999999931 16.5866996667526934   T   T   T
  9.8800495001290347  7.5855899999999998 11.0977832777921144   F   F   F
 10.9778327779211509 11.8280899999999978 10.0000000000000000   F   F   F
  8.7822662223369203 13.6269100000000005 10.0000000000000000   F   F   F
  9.8800495001290347  0.8994099999999987 11.0977832777921144   F   F   F
 12.0756160557132652 16.0705899999999993 11.0977832777921144   F   F   F
 12.0756160557132652  9.3844099999999990 11.0977832777921144   F   F   F
 10.9778327779211509  5.1419100000000002 10.0000000000000000   F   F   F
  8.7822662223369203  3.3430899999999988 10.0000000000000000   F   F   F
  9.8800495001290347 10.2159399999999998 11.0977832777921144   F   F   F
 10.9778327779211509 14.4584399999999995 10.0000000000000000   F   F   F
  8.7822662223369203 10.9965600000000023 10.0000000000000000   F   F   F
  9.8800495001290347 15.2390599999999949 11.0977832777921144   F   F   F
 12.0756160557132652  1.7309399999999995 11.0977832777921144   F   F   F
 12.0756160557132652  6.7540599999999982 11.0977832777921144   F   F   F
 10.9778327779211509  2.5115599999999985 10.0000000000000000   F   F   F
  8.7822662223369203  5.9734399999999992 10.0000000000000000   F   F   F
 12.0756160557132652  7.5855899999999998 13.2933498333763467   F   F   F
  8.7822662223369203 11.8280899999999978 12.1955665555842305   F   F   F
 10.9778327779211509 13.6269100000000005 12.1955665555842305   F   F   F
 12.0756160557132652  0.8994099999999985 13.2933498333763467   F   F   F
  9.8800495001290347 16.0705899999999993 13.2933498333763449   F   F   F
  9.8800495001290347  9.3844099999999990 13.2933498333763449   F   F   F
  8.7822662223369203  5.1419100000000002 12.1955665555842305   F   F   F
 10.9778327779211509  3.3430899999999988 12.1955665555842305   F   F   F
 12.0756160557132652 10.2159399999999998 13.2933498333763467   F   F   F
  8.7822662223369203 14.4584399999999995 12.1955665555842305   F   F   F
 10.9778327779211509 10.9965600000000023 12.1955665555842305   F   F   F
 12.0756160557132652 15.2390599999999949 13.2933498333763467   F   F   F
  9.8800495001290347  1.7309399999999993 13.2933498333763449   F   F   F
  9.8800495001290347  6.7540599999999982 13.2933498333763449   F   F   F
  8.7822662223369203  2.5115599999999985 12.1955665555842305   F   F   F
 10.9778327779211509  5.9734399999999992 12.1955665555842305   F   F   F
  9.8800495001290347  7.5855899999999998 15.4889163889605754   T   T   T
 10.9778327779211509 11.8280899999999978 14.3911331111684611   T   T   T
  8.7822662223369203 13.6269100000000005 14.3911331111684611   T   T   T
  9.8800495001290347  0.8994099999999984 15.4889163889605754   T   T   T
 12.0756160557132670 16.0705899999999993 15.4889163889605754   T   T   T
 12.0756160557132670  9.3844099999999990 15.4889163889605754   T   T   T
 10.9778327779211509  5.1419100000000002 14.3911331111684611   T   T   T
  8.7822662223369203  3.3430899999999983 14.3911331111684611   T   T   T
  9.8800495001290347 10.2159399999999998 15.4889163889605754   T   T   T
 10.9778327779211509 14.4584399999999995 14.3911331111684611   T   T   T
  8.7822662223369203 10.9965600000000023 14.3911331111684611   T   T   T
  9.8800495001290347 15.2390599999999949 15.4889163889605754   T   T   T
 12.0756160557132670  1.7309399999999990 15.4889163889605754   T   T   T
 12.0756160557132670  6.7540599999999982 15.4889163889605754   T   T   T
 10.9778327779211509  2.5115599999999980 14.3911331111684611   T   T   T
  8.7822662223369203  5.9734399999999992 14.3911331111684611   T   T   T
 12.0756160557132670  7.5855899999999989 17.6844829445448077   T   T   T
  8.7822662223369203 11.8280899999999978 16.5866996667526934   T   T   T
 10.9778327779211509 13.6269100000000005 16.5866996667526934   T   T   T
 12.0756160557132670  0.8994099999999982 17.6844829445448077   T   T   T
  9.8800495001290347 16.0705899999999993 17.6844829445448042   T   T   T
  9.8800495001290347  9.3844099999999990 17.6844829445448042   T   T   T
  8.7822662223369203  5.1419099999999993 16.5866996667526934   T   T   T
 10.9778327779211509  3.3430899999999983 16.5866996667526934   T   T   T
 12.0756160557132670 10.2159399999999998 17.6844829445448077   T   T   T
  8.7822662223369203 14.4584399999999995 16.5866996667526934   T   T   T
 10.9778327779211509 10.9965600000000023 16.5866996667526934   T   T   T
 12.0756160557132670 15.2390599999999949 17.6844829445448077   T   T   T
  9.8800495001290347  1.7309399999999988 17.6844829445448042   T   T   T
  9.8800495001290347  6.7540599999999973 17.6844829445448042   T   T   T
  8.7822662223369203  2.5115599999999980 16.5866996667526934   T   T   T
 10.9778327779211509  5.9734399999999983 16.5866996667526934   T   T   T
  9.8800495001290347 24.5555899999999987 11.0977832777921144   F   F   F
 10.9778327779211509 28.7980899999999949 10.0000000000000000   F   F   F
  8.7822662223369203 30.5969100000000012 10.0000000000000000   F   F   F
  9.8800495001290347 17.8694099999999985 11.0977832777921144   F   F   F
 12.0756160557132652 33.0405899999999946 11.0977832777921144   F   F   F
 12.0756160557132652 26.3544099999999979 11.0977832777921144   F   F   F
 10.9778327779211509 22.1119099999999982 10.0000000000000000   F   F   F
  8.7822662223369203 20.3130899999999990 10.0000000000000000   F   F   F
  9.8800495001290347 27.1859399999999987 11.0977832777921144   F   F   F
 10.9778327779211509 31.4284399999999984 10.0000000000000000   F   F   F
  8.7822662223369203 27.9665600000000012 10.0000000000000000   F   F   F
  9.8800495001290347 32.2090599999999938 11.0977832777921144   F   F   F
 12.0756160557132652 18.7009399999999992 11.0977832777921144   F   F   F
 12.0756160557132652 23.7240599999999979 11.0977832777921144   F   F   F
 10.9778327779211509 19.4815599999999982 10.0000000000000000   F   F   F
  8.7822662223369203 22.9434399999999989 10.0000000000000000   F   F   F
 12.0756160557132652 24.5555899999999987 13.2933498333763467   F   F   F
  8.7822662223369203 28.7980899999999949 12.1955665555842305   F   F   F
 10.9778327779211509 30.5969100000000012 12.1955665555842305   F   F   F
 12.0756160557132652 17.8694099999999985 13.2933498333763467   F   F   F
  9.8800495001290347 33.0405899999999946 13.2933498333763449   F   F   F
  9.8800495001290347 26.3544099999999979 13.2933498333763449   F   F   F
  8.7822662223369203 22.1119099999999982 12.1955665555842305   F   F   F
 10.9778327779211509 20.3130899999999990 12.1955665555842305   F   F   F
 12.0756160557132652 27.1859399999999987 13.2933498333763467   F   F   F
  8.7822662223369203 31.4284399999999984 12.1955665555842305   F   F   F
 10.9778327779211509 27.9665600000000012 12.1955665555842305   F   F   F
 12.0756160557132652 32.2090599999999938 13.2933498333763467   F   F   F
  9.8800495001290347 18.7009399999999992 13.2933498333763449   F   F   F
  9.8800495001290347 23.7240599999999979 13.2933498333763449   F   F   F
  8.7822662223369203 19.4815599999999982 12.1955665555842305   F   F   F
 10.9778327779211509 22.9434399999999989 12.1955665555842305   F   F   F
  9.8800495001290347 24.5555899999999987 15.4889163889605754   T   T   T
 10.9778327779211509 28.7980899999999949 14.3911331111684611   T   T   T
  8.7822662223369203 30.5969100000000012 14.3911331111684611   T   T   T
  9.8800495001290347 17.8694099999999985 15.4889163889605754   T   T   T
 12.0756160557132670 33.0405899999999946 15.4889163889605754   T   T   T
 12.0756160557132670 26.3544099999999979 15.4889163889605754   T   T   T
 10.9778327779211509 22.1119099999999982 14.3911331111684611   T   T   T
  8.7822662223369203 20.3130899999999954 14.3911331111684611   T   T   T
  9.8800495001290347 27.1859399999999987 15.4889163889605754   T   T   T
 10.9778327779211509 31.4284399999999984 14.3911331111684611   T   T   T
  8.7822662223369203 27.9665600000000012 14.3911331111684611   T   T   T
  9.8800495001290347 32.2090599999999938 15.4889163889605754   T   T   T
 12.0756160557132670 18.7009399999999992 15.4889163889605754   T   T   T
 12.0756160557132670 23.7240599999999979 15.4889163889605754   T   T   T
 10.9778327779211509 19.4815599999999982 14.3911331111684611   T   T   T
  8.7822662223369203 22.9434399999999989 14.3911331111684611   T   T   T
 12.0756160557132670 24.5555899999999987 17.6844829445448077   T   T   T
  8.7822662223369203 28.7980899999999949 16.5866996667526934   T   T   T
 10.9778327779211509 30.5969100000000012 16.5866996667526934   T   T   T
 12.0756160557132670 17.8694099999999985 17.6844829445448077   T   T   T
  9.8800495001290347 33.0405899999999946 17.6844829445448042   T   T   T
  9.8800495001290347 26.3544099999999979 17.6844829445448042   T   T   T
  8.7822662223369203 22.1119099999999982 16.5866996667526934   T   T   T
 10.9778327779211509 20.3130899999999954 16.5866996667526934   T   T   T
 12.0756160557132670 27.1859399999999987 17.6844829445448077   T   T   T
  8.7822662223369203 31.4284399999999984 16.5866996667526934   T   T   T
 10.9778327779211509 27.9665600000000012 16.5866996667526934   T   T   T
 12.0756160557132670 32.2090599999999938 17.6844829445448077   T   T   T
  9.8800495001290347 18.7009399999999992 17.6844829445448042   T   T   T
  9.8800495001290347 23.7240599999999944 17.6844829445448042   T   T   T
  8.7822662223369203 19.4815599999999982 16.5866996667526934   T   T   T
 10.9778327779211509 22.9434399999999954 16.5866996667526934   T   T   T
  9.8800495001290347 41.5255899999999940 11.0977832777921144   F   F   F
 10.9778327779211509 45.7680899999999937 10.0000000000000000   F   F   F
  8.7822662223369203 47.5669100000000000 10.0000000000000000   F   F   F
  9.8800495001290347 34.8394099999999938 11.0977832777921144   F   F   F
 12.0756160557132652 50.0105899999999934 11.0977832777921144   F   F   F
 12.0756160557132652 43.3244100000000003 11.0977832777921144   F   F   F
 10.9778327779211509 39.0819100000000006 10.0000000000000000   F   F   F
  8.7822662223369203 37.2830899999999943 10.0000000000000000   F   F   F
  9.8800495001290347 44.1559400000000011 11.0977832777921144   F   F   F
 10.9778327779211509 48.3984399999999937 10.0000000000000000   F   F   F
  8.7822662223369203 44.9365600000000001 10.0000000000000000   F   F   F
  9.8800495001290347 49.1790599999999927 11.0977832777921144   F   F   F
 12.0756160557132652 35.6709399999999945 11.0977832777921144   F   F   F
 12.0756160557132652 40.6940599999999932 11.0977832777921144   F   F   F
 10.9778327779211509 36.4515599999999935 10.0000000000000000   F   F   F
  8.7822662223369203 39.9134399999999943 10.0000000000000000   F   F   F
 12.0756160557132652 41.5255899999999940 13.2933498333763467   F   F   F
  8.7822662223369203 45.7680899999999937 12.1955665555842305   F   F   F
 10.9778327779211509 47.5669100000000000 12.1955665555842305   F   F   F
 12.0756160557132652 34.8394099999999938 13.2933498333763467   F   F   F
  9.8800495001290347 50.0105899999999934 13.2933498333763449   F   F   F
  9.8800495001290347 43.3244100000000003 13.2933498333763449   F   F   F
  8.7822662223369203 39.0819100000000006 12.1955665555842305   F   F   F
 10.9778327779211509 37.2830899999999943 12.1955665555842305   F   F   F
 12.0756160557132652 44.1559400000000011 13.2933498333763467   F   F   F
  8.7822662223369203 48.3984399999999937 12.1955665555842305   F   F   F
 10.9778327779211509 44.9365600000000001 12.1955665555842305   F   F   F
 12.0756160557132652 49.1790599999999927 13.2933498333763467   F   F   F
  9.8800495001290347 35.6709399999999945 13.2933498333763449   F   F   F
  9.8800495001290347 40.6940599999999932 13.2933498333763449   F   F   F
  8.7822662223369203 36.4515599999999935 12.1955665555842305   F   F   F
 10.9778327779211509 39.9134399999999943 12.1955665555842305   F   F   F
  9.8800495001290347 41.5255899999999940 15.4889163889605754   T   T   T
 10.9778327779211509 45.7680899999999937 14.3911331111684611   T   T   T
  8.7822662223369203 47.5669100000000000 14.3911331111684611   T   T   T
  9.8800495001290347 34.8394099999999938 15.4889163889605754   T   T   T
 12.0756160557132670 50.0105899999999934 15.4889163889605754   T   T   T
 12.0756160557132670 43.3244100000000003 15.4889163889605754   T   T   T
 10.9778327779211509 39.0819100000000006 14.3911331111684611   T   T   T
  8.7822662223369203 37.2830899999999943 14.3911331111684611   T   T   T
  9.8800495001290347 44.1559400000000011 15.4889163889605754   T   T   T
 10.9778327779211509 48.3984399999999937 14.3911331111684611   T   T   T
  8.7822662223369203 44.9365600000000001 14.3911331111684611   T   T   T
  9.8800495001290347 49.1790599999999927 15.4889163889605754   T   T   T
 12.0756160557132670 35.6709399999999945 15.4889163889605754   T   T   T
 12.0756160557132670 40.6940599999999932 15.4889163889605754   T   T   T
 10.9778327779211509 36.4515599999999935 14.3911331111684611   T   T   T
  8.7822662223369203 39.9134399999999943 14.3911331111684611   T   T   T
 12.0756160557132670 41.5255899999999940 17.6844829445448077   T   T   T
  8.7822662223369203 45.7680899999999937 16.5866996667526934   T   T   T
 10.9778327779211509 47.5669100000000000 16.5866996667526934   T   T   T
 12.0756160557132670 34.8394099999999938 17.6844829445448077   T   T   T
  9.8800495001290347 50.0105899999999934 17.6844829445448042   T   T   T
  9.8800495001290347 43.3244100000000003 17.6844829445448042   T   T   T
  8.7822662223369203 39.0819099999999935 16.5866996667526934   T   T   T
 10.9778327779211509 37.2830899999999943 16.5866996667526934   T   T   T
 12.0756160557132670 44.1559400000000011 17.6844829445448077   T   T   T
  8.7822662223369203 48.3984399999999937 16.5866996667526934   T   T   T
 10.9778327779211509 44.9365600000000001 16.5866996667526934   T   T   T
 12.0756160557132670 49.1790599999999927 17.6844829445448077   T   T   T
  9.8800495001290347 35.6709399999999945 17.6844829445448042   T   T   T
  9.8800495001290347 40.6940599999999932 17.6844829445448042   T   T   T
  8.7822662223369203 36.4515599999999935 16.5866996667526934   T   T   T
 10.9778327779211509 39.9134399999999943 16.5866996667526934   T   T   T
  9.8800495001290347 58.4955899999999929 11.0977832777921144   F   F   F
 10.9778327779211509 62.7380899999999926 10.0000000000000000   F   F   F
  8.7822662223369203 64.5369099999999918 10.0000000000000000   F   F   F
  9.8800495001290347 51.8094099999999926 11.0977832777921144   F   F   F
 12.0756160557132652 66.9805899999999923 11.0977832777921144   F   F   F
 12.0756160557132652 60.2944099999999992 11.0977832777921144   F   F   F
 10.9778327779211509 56.0519099999999995 10.0000000000000000   F   F   F
  8.7822662223369203 54.2530899999999932 10.0000000000000000   F   F   F
  9.8800495001290347 61.1259399999999999 11.0977832777921144   F   F   F
 10.9778327779211509 65.3684399999999926 10.0000000000000000   F   F   F
  8.7822662223369203 61.9065599999999989 10.0000000000000000   F   F   F
  9.8800495001290347 66.1490599999999915 11.0977832777921144   F   F   F
 12.0756160557132652 52.6409399999999934 11.0977832777921144   F   F   F
 12.0756160557132652 57.6640599999999921 11.0977832777921144   F   F   F
 10.9778327779211509 53.4215599999999924 10.0000000000000000   F   F   F
  8.7822662223369203 56.8834399999999931 10.0000000000000000   F   F   F
 12.0756160557132652 58.4955899999999929 13.2933498333763467   F   F   F
  8.7822662223369203 62.7380899999999926 12.1955665555842305   F   F   F
 10.9778327779211509 64.5369099999999918 12.1955665555842305   F   F   F
 12.0756160557132652 51.8094099999999926 13.2933498333763467   F   F   F
  9.8800495001290347 66.9805899999999923 13.2933498333763449   F   F   F
  9.8800495001290347 60.2944099999999992 13.2933498333763449   F   F   F
  8.7822662223369203 56.0519099999999995 12.1955665555842305   F   F   F
 10.9778327779211509 54.2530899999999932 12.1955665555842305   F   F   F
 12.0756160557132652 61.1259399999999999 13.2933498333763467   F   F   F
  8.7822662223369203 65.3684399999999926 12.1955665555842305   F   F   F
 10.9778327779211509 61.9065599999999989 12.1955665555842305   F   F   F
 12.0756160557132652 66.1490599999999915 13.2933498333763467   F   F   F
  9.8800495001290347 52.6409399999999934 13.2933498333763449   F   F   F
  9.8800495001290347 57.6640599999999921 13.2933498333763449   F   F   F
  8.7822662223369203 53.4215599999999924 12.1955665555842305   F   F   F
 10.9778327779211509 56.8834399999999931 12.1955665555842305   F   F   F
  9.8800495001290347 58.4955899999999929 15.4889163889605754   T   T   T
 10.9778327779211509 62.7380899999999926 14.3911331111684611   T   T   T
  8.7822662223369203 64.5369099999999918 14.3911331111684611   T   T   T
  9.8800495001290347 51.8094099999999926 15.4889163889605754   T   T   T
 12.0756160557132670 66.9805899999999923 15.4889163889605754   T   T   T
 12.0756160557132670 60.2944099999999992 15.4889163889605754   T   T   T
 10.9778327779211509 56.0519099999999995 14.3911331111684611   T   T   T
  8.7822662223369203 54.2530899999999932 14.3911331111684611   T   T   T
  9.8800495001290347 61.1259399999999999 15.4889163889605754   T   T   T
 10.9778327779211509 65.3684399999999926 14.3911331111684611   T   T   T
  8.7822662223369203 61.9065599999999989 14.3911331111684611   T   T   T
  9.8800495001290347 66.1490599999999915 15.4889163889605754   T   T   T
 12.0756160557132670 52.6409399999999934 15.4889163889605754   T   T   T
 12.0756160557132670 57.6640599999999921 15.4889163889605754   T   T   T
 10.9778327779211509 53.4215599999999924 14.3911331111684611   T   T   T
  8.7822662223369203 56.8834399999999931 14.3911331111684611   T   T   T
 12.0756160557132670 58.4955899999999929 17.6844829445448077   T   T   T
  8.7822662223369203 62.7380899999999926 16.5866996667526934   T   T   T
 10.9778327779211509 64.5369099999999918 16.5866996667526934   T   T   T
 12.0756160557132670 51.8094099999999926 17.6844829445448077   T   T   T
  9.8800495001290347 66.9805899999999923 17.6844829445448042   T   T   T
  9.8800495001290347 60.2944099999999992 17.6844829445448042   T   T   T
  8.7822662223369203 56.0519099999999924 16.5866996667526934   T   T   T
 10.9778327779211509 54.2530899999999932 16.5866996667526934   T   T   T
 12.0756160557132670 61.1259399999999999 17.6844829445448077   T   T   T
  8.7822662223369203 65.3684399999999926 16.5866996667526934   T   T   T
 10.9778327779211509 61.9065599999999989 16.5866996667526934   T   T   T
 12.0756160557132670 66.1490599999999915 17.6844829445448077   T   T   T
  9.8800495001290347 52.6409399999999934 17.6844829445448042   T   T   T
  9.8800495001290347 57.6640599999999921 17.6844829445448042   T   T   T
  8.7822662223369203 53.4215599999999924 16.5866996667526934   T   T   T
 10.9778327779211509 56.8834399999999931 16.5866996667526934   T   T   T
 14.2711826112974940  7.5855899999999998 11.0977832777921144   F   F   F
 15.3689658890896101 11.8280899999999978 10.0000000000000000   F   F   F
 13.1733993335053796 13.6269100000000005 10.0000000000000000   F   F   F
 14.2711826112974940  0.8994099999999987 11.0977832777921144   F   F   F
 16.4667491668817263 16.0705899999999993 11.0977832777921144   F   F   F
 16.4667491668817263  9.3844099999999990 11.0977832777921144   F   F   F
 15.3689658890896101  5.1419100000000002 10.0000000000000000   F   F   F
 13.1733993335053796  3.3430899999999988 10.0000000000000000   F   F   F
 14.2711826112974940 10.2159399999999998 11.0977832777921144   F   F   F
 15.3689658890896101 14.4584399999999995 10.0000000000000000   F   F   F
 13.1733993335053796 10.9965600000000023 10.0000000000000000   F   F   F
 14.2711826112974940 15.2390599999999949 11.0977832777921144   F   F   F
 16.4667491668817263  1.7309399999999995 11.0977832777921144   F   F   F
 16.4667491668817263  6.7540599999999982 11.0977832777921144   F   F   F
 15.3689658890896101  2.5115599999999985 10.0000000000000000   F   F   F
 13.1733993335053796  5.9734399999999992 10.0000000000000000   F   F   F
 16.4667491668817263  7.5855899999999998 13.2933498333763467   F   F   F
 13.1733993335053796 11.8280899999999978 12.1955665555842305   F   F   F
 15.3689658890896101 13.6269100000000005 12.1955665555842305   F   F   F
 16.4667491668817263  0.8994099999999985 13.2933498333763467   F   F   F
 14.2711826112974940 16.0705899999999993 13.2933498333763449   F   F   F
 14.2711826112974940  9.3844099999999990 13.2933498333763449   F   F   F
 13.1733993335053796  5.1419100000000002 12.1955665555842305   F   F   F
 15.3689658890896101  3.3430899999999988 12.1955665555842305   F   F   F
 16.4667491668817263 10.2159399999999998 13.2933498333763467   F   F   F
 13.1733993335053796 14.4584399999999995 12.1955665555842305   F   F   F
 15.3689658890896101 10.9965600000000023 12.1955665555842305   F   F   F
 16.4667491668817263 15.2390599999999949 13.2933498333763467   F   F   F
 14.2711826112974940  1.7309399999999993 13.2933498333763449   F   F   F
 14.2711826112974940  6.7540599999999982 13.2933498333763449   F   F   F
 13.1733993335053796  2.5115599999999985 12.1955665555842305   F   F   F
 15.3689658890896101  5.9734399999999992 12.1955665555842305   F   F   F
 14.2711826112974940  7.5855899999999998 15.4889163889605754   T   T   T
 15.3689658890896101 11.8280899999999978 14.3911331111684611   T   T   T
 13.1733993335053796 13.6269100000000005 14.3911331111684611   T   T   T
 14.2711826112974940  0.8994099999999984 15.4889163889605754   T   T   T
 16.4667491668817263 16.0705899999999993 15.4889163889605754   T   T   T
 16.4667491668817263  9.3844099999999990 15.4889163889605754   T   T   T
 15.3689658890896101  5.1419100000000002 14.3911331111684611   T   T   T
 13.1733993335053796  3.3430899999999983 14.3911331111684611   T   T   T
 14.2711826112974940 10.2159399999999998 15.4889163889605754   T   T   T
 15.3689658890896101 14.4584399999999995 14.3911331111684611   T   T   T
 13.1733993335053796 10.9965600000000023 14.3911331111684611   T   T   T
 14.2711826112974940 15.2390599999999949 15.4889163889605754   T   T   T
 16.4667491668817263  1.7309399999999990 15.4889163889605754   T   T   T
 16.4667491668817263  6.7540599999999982 15.4889163889605754   T   T   T
 15.3689658890896101  2.5115599999999980 14.3911331111684611   T   T   T
 13.1733993335053796  5.9734399999999992 14.3911331111684611   T   T   T
 16.4667491668817263  7.5855899999999989 17.6844829445448077   T   T   T
 13.1733993335053796 11.8280899999999978 16.5866996667526934   T   T   T
 15.3689658890896101 13.6269100000000005 16.5866996667526934   T   T   T
 16.4667491668817263  0.8994099999999982 17.6844829445448077   T   T   T
 14.2711826112974940 16.0705899999999993 17.6844829445448042   T   T   T
 14.2711826112974940  9.3844099999999990 17.6844829445448042   T   T   T
 13.1733993335053796  5.1419099999999993 16.5866996667526934   T   T   T
 15.3689658890896101  3.3430899999999983 16.5866996667526934   T   T   T
 16.4667491668817263 10.2159399999999998 17.6844829445448077   T   T   T
 13.1733993335053796 14.4584399999999995 16.5866996667526934   T   T   T
 15.3689658890896101 10.9965600000000023 16.5866996667526934   T   T   T
 16.4667491668817263 15.2390599999999949 17.6844829445448077   T   T   T
 14.2711826112974940  1.7309399999999988 17.6844829445448042   T   T   T
 14.2711826112974940  6.7540599999999973 17.6844829445448042   T   T   T
 13.1733993335053796  2.5115599999999980 16.5866996667526934   T   T   T
 15.3689658890896101  5.9734399999999983 16.5866996667526934   T   T   T
 14.2711826112974940 24.5555899999999987 11.0977832777921144   F   F   F
 15.3689658890896101 28.7980899999999949 10.0000000000000000   F   F   F
 13.1733993335053796 30.5969100000000012 10.0000000000000000   F   F   F
 14.2711826112974940 17.8694099999999985 11.0977832777921144   F   F   F
 16.4667491668817263 33.0405899999999946 11.0977832777921144   F   F   F
 16.4667491668817263 26.3544099999999979 11.0977832777921144   F   F   F
 15.3689658890896101 22.1119099999999982 10.0000000000000000   F   F   F
 13.1733993335053796 20.3130899999999990 10.0000000000000000   F   F   F
 14.2711826112974940 27.1859399999999987 11.0977832777921144   F   F   F
 15.3689658890896101 31.4284399999999984 10.0000000000000000   F   F   F
 13.1733993335053796 27.9665600000000012 10.0000000000000000   F   F   F
 14.2711826112974940 32.2090599999999938 11.0977832777921144   F   F   F
 16.4667491668817263 18.7009399999999992 11.0977832777921144   F   F   F
 16.4667491668817263 23.7240599999999979 11.0977832777921144   F   F   F
 15.3689658890896101 19.4815599999999982 10.0000000000000000   F   F   F
 13.1733993335053796 22.9434399999999989 10.0000000000000000   F   F   F
 16.4667491668817263 24.5555899999999987 13.2933498333763467   F   F   F
 13.1733993335053796 28.7980899999999949 12.1955665555842305   F   F   F
 15.3689658890896101 30.5969100000000012 12.1955665555842305   F   F   F
 16.4667491668817263 17.8694099999999985 13.2933498333763467   F   F   F
 14.2711826112974940 33.0405899999999946 13.2933498333763449   F   F   F
 14.2711826112974940 26.3544099999999979 13.2933498333763449   F   F   F
 13.1733993335053796 22.1119099999999982 12.1955665555842305   F   F   F
 15.3689658890896101 20.3130899999999990 12.1955665555842305   F   F   F
 16.4667491668817263 27.1859399999999987 13.2933498333763467   F   F   F
 13.1733993335053796 31.4284399999999984 12.1955665555842305   F   F   F
 15.3689658890896101 27.9665600000000012 12.1955665555842305   F   F   F
 16.4667491668817263 32.2090599999999938 13.2933498333763467   F   F   F
 14.2711826112974940 18.7009399999999992 13.2933498333763449   F   F   F
 14.2711826112974940 23.7240599999999979 13.2933498333763449   F   F   F
 13.1733993335053796 19.4815599999999982 12.1955665555842305   F   F   F
 15.3689658890896101 22.9434399999999989 12.1955665555842305   F   F   F
 14.2711826112974940 24.5555899999999987 15.4889163889605754   T   T   T
 15.3689658890896101 28.7980899999999949 14.3911331111684611   T   T   T
 13.1733993335053796 30.5969100000000012 14.3911331111684611   T   T   T
 14.2711826112974940 17.8694099999999985 15.4889163889605754   T   T   T
 16.4667491668817263 33.0405899999999946 15.4889163889605754   T   T   T
 16.4667491668817263 26.3544099999999979 15.4889163889605754   T   T   T
 15.3689658890896101 22.1119099999999982 14.3911331111684611   T   T   T
 13.1733993335053796 20.3130899999999954 14.3911331111684611   T   T   T
 14.2711826112974940 27.1859399999999987 15.4889163889605754   T   T   T
 15.3689658890896101 31.4284399999999984 14.3911331111684611   T   T   T
 13.1733993335053796 27.9665600000000012 14.3911331111684611   T   T   T
 14.2711826112974940 32.2090599999999938 15.4889163889605754   T   T   T
 16.4667491668817263 18.7009399999999992 15.4889163889605754   T   T   T
 16.4667491668817263 23.7240599999999979 15.4889163889605754   T   T   T
 15.3689658890896101 19.4815599999999982 14.3911331111684611   T   T   T
 13.1733993335053796 22.9434399999999989 14.3911331111684611   T   T   T
 16.4667491668817263 24.5555899999999987 17.6844829445448077   T   T   T
 13.1733993335053796 28.7980899999999949 16.5866996667526934   T   T   T
 15.3689658890896101 30.5969100000000012 16.5866996667526934   T   T   T
 16.4667491668817263 17.8694099999999985 17.6844829445448077   T   T   T
 14.2711826112974940 33.0405899999999946 17.6844829445448042   T   T   T
 14.2711826112974940 26.3544099999999979 17.6844829445448042   T   T   T
 13.1733993335053796 22.1119099999999982 16.5866996667526934   T   T   T
 15.3689658890896101 20.3130899999999954 16.5866996667526934   T   T   T
 16.4667491668817263 27.1859399999999987 17.6844829445448077   T   T   T
 13.1733993335053796 31.4284399999999984 16.5866996667526934   T   T   T
 15.3689658890896101 27.9665600000000012 16.5866996667526934   T   T   T
 16.4667491668817263 32.2090599999999938 17.6844829445448077   T   T   T
 14.2711826112974940 18.7009399999999992 17.6844829445448042   T   T   T
 14.2711826112974940 23.7240599999999944 17.6844829445448042   T   T   T
 13.1733993335053796 19.4815599999999982 16.5866996667526934   T   T   T
 15.3689658890896101 22.9434399999999954 16.5866996667526934   T   T   T
 14.2711826112974940 41.5255899999999940 11.0977832777921144   F   F   F
 15.3689658890896101 45.7680899999999937 10.0000000000000000   F   F   F
 13.1733993335053796 47.5669100000000000 10.0000000000000000   F   F   F
 14.2711826112974940 34.8394099999999938 11.0977832777921144   F   F   F
 16.4667491668817263 50.0105899999999934 11.0977832777921144   F   F   F
 16.4667491668817263 43.3244100000000003 11.0977832777921144   F   F   F
 15.3689658890896101 39.0819100000000006 10.0000000000000000   F   F   F
 13.1733993335053796 37.2830899999999943 10.0000000000000000   F   F   F
 14.2711826112974940 44.1559400000000011 11.0977832777921144   F   F   F
 15.3689658890896101 48.3984399999999937 10.0000000000000000   F   F   F
 13.1733993335053796 44.9365600000000001 10.0000000000000000   F   F   F
 14.2711826112974940 49.1790599999999927 11.0977832777921144   F   F   F
 16.4667491668817263 35.6709399999999945 11.0977832777921144   F   F   F
 16.4667491668817263 40.6940599999999932 11.0977832777921144   F   F   F
 15.3689658890896101 36.4515599999999935 10.0000000000000000   F   F   F
 13.1733993335053796 39.9134399999999943 10.0000000000000000   F   F   F
 16.4667491668817263 41.5255899999999940 13.2933498333763467   F   F   F
 13.1733993335053796 45.7680899999999937 12.1955665555842305   F   F   F
 15.3689658890896101 47.5669100000000000 12.1955665555842305   F   F   F
 16.4667491668817263 34.8394099999999938 13.2933498333763467   F   F   F
 14.2711826112974940 50.0105899999999934 13.2933498333763449   F   F   F
 14.2711826112974940 43.3244100000000003 13.2933498333763449   F   F   F
 13.1733993335053796 39.0819100000000006 12.1955665555842305   F   F   F
 15.3689658890896101 37.2830899999999943 12.1955665555842305   F   F   F
 16.4667491668817263 44.1559400000000011 13.2933498333763467   F   F   F
 13.1733993335053796 48.3984399999999937 12.1955665555842305   F   F   F
 15.3689658890896101 44.9365600000000001 12.1955665555842305   F   F   F
 16.4667491668817263 49.1790599999999927 13.2933498333763467   F   F   F
 14.2711826112974940 35.6709399999999945 13.2933498333763449   F   F   F
 14.2711826112974940 40.6940599999999932 13.2933498333763449   F   F   F
 13.1733993335053796 36.4515599999999935 12.1955665555842305   F   F   F
 15.3689658890896101 39.9134399999999943 12.1955665555842305   F   F   F
 14.2711826112974940 41.5255899999999940 15.4889163889605754   T   T   T
 15.3689658890896101 45.7680899999999937 14.3911331111684611   T   T   T
 13.1733993335053796 47.5669100000000000 14.3911331111684611   T   T   T
 14.2711826112974940 34.8394099999999938 15.4889163889605754   T   T   T
 16.4667491668817263 50.0105899999999934 15.4889163889605754   T   T   T
 16.4667491668817263 43.3244100000000003 15.4889163889605754   T   T   T
 15.3689658890896101 39.0819100000000006 14.3911331111684611   T   T   T
 13.1733993335053796 37.2830899999999943 14.3911331111684611   T   T   T
 14.2711826112974940 44.1559400000000011 15.4889163889605754   T   T   T
 15.3689658890896101 48.3984399999999937 14.3911331111684611   T   T   T
 13.1733993335053796 44.9365600000000001 14.3911331111684611   T   T   T
 14.2711826112974940 49.1790599999999927 15.4889163889605754   T   T   T
 16.4667491668817263 35.6709399999999945 15.4889163889605754   T   T   T
 16.4667491668817263 40.6940599999999932 15.4889163889605754   T   T   T
 15.3689658890896101 36.4515599999999935 14.3911331111684611   T   T   T
 13.1733993335053796 39.9134399999999943 14.3911331111684611   T   T   T
 16.4667491668817263 41.5255899999999940 17.6844829445448077   T   T   T
 13.1733993335053796 45.7680899999999937 16.5866996667526934   T   T   T
 15.3689658890896101 47.5669100000000000 16.5866996667526934   T   T   T
 16.4667491668817263 34.8394099999999938 17.6844829445448077   T   T   T
 14.2711826112974940 50.0105899999999934 17.6844829445448042   T   T   T
 14.2711826112974940 43.3244100000000003 17.6844829445448042   T   T   T
 13.1733993335053796 39.0819099999999935 16.5866996667526934   T   T   T
 15.3689658890896101 37.2830899999999943 16.5866996667526934   T   T   T
 16.4667491668817263 44.1559400000000011 17.6844829445448077   T   T   T
 13.1733993335053796 48.3984399999999937 16.5866996667526934   T   T   T
 15.3689658890896101 44.9365600000000001 16.5866996667526934   T   T   T
 16.4667491668817263 49.1790599999999927 17.6844829445448077   T   T   T
 14.2711826112974940 35.6709399999999945 17.6844829445448042   T   T   T
 14.2711826112974940 40.6940599999999932 17.6844829445448042   T   T   T
 13.1733993335053796 36.4515599999999935 16.5866996667526934   T   T   T
 15.3689658890896101 39.9134399999999943 16.5866996667526934   T   T   T
 14.2711826112974940 58.4955899999999929 11.0977832777921144   F   F   F
 15.3689658890896101 62.7380899999999926 10.0000000000000000   F   F   F
 13.1733993335053796 64.5369099999999918 10.0000000000000000   F   F   F
 14.2711826112974940 51.8094099999999926 11.0977832777921144   F   F   F
 16.4667491668817263 66.9805899999999923 11.0977832777921144   F   F   F
 16.4667491668817263 60.2944099999999992 11.0977832777921144   F   F   F
 15.3689658890896101 56.0519099999999995 10.0000000000000000   F   F   F
 13.1733993335053796 54.2530899999999932 10.0000000000000000   F   F   F
 14.2711826112974940 61.1259399999999999 11.0977832777921144   F   F   F
 15.3689658890896101 65.3684399999999926 10.0000000000000000   F   F   F
 13.1733993335053796 61.9065599999999989 10.0000000000000000   F   F   F
 14.2711826112974940 66.1490599999999915 11.0977832777921144   F   F   F
 16.4667491668817263 52.6409399999999934 11.0977832777921144   F   F   F
 16.4667491668817263 57.6640599999999921 11.0977832777921144   F   F   F
 15.3689658890896101 53.4215599999999924 10.0000000000000000   F   F   F
 13.1733993335053796 56.8834399999999931 10.0000000000000000   F   F   F
 16.4667491668817263 58.4955899999999929 13.2933498333763467   F   F   F
 13.1733993335053796 62.7380899999999926 12.1955665555842305   F   F   F
 15.3689658890896101 64.5369099999999918 12.1955665555842305   F   F   F
 16.4667491668817263 51.8094099999999926 13.2933498333763467   F   F   F
 14.2711826112974940 66.9805899999999923 13.2933498333763449   F   F   F
 14.2711826112974940 60.2944099999999992 13.2933498333763449   F   F   F
 13.1733993335053796 56.0519099999999995 12.1955665555842305   F   F   F
 15.3689658890896101 54.2530899999999932 12.1955665555842305   F   F   F
 16.4667491668817263 61.1259399999999999 13.2933498333763467   F   F   F
 13.1733993335053796 65.3684399999999926 12.1955665555842305   F   F   F
 15.3689658890896101 61.9065599999999989 12.1955665555842305   F   F   F
 16.4667491668817263 66.1490599999999915 13.2933498333763467   F   F   F
 14.2711826112974940 52.6409399999999934 13.2933498333763449   F   F   F
 14.2711826112974940 57.6640599999999921 13.2933498333763449   F   F   F
 13.1733993335053796 53.4215599999999924 12.1955665555842305   F   F   F
 15.3689658890896101 56.8834399999999931 12.1955665555842305   F   F   F
 14.2711826112974940 58.4955899999999929 15.4889163889605754   T   T   T
 15.3689658890896101 62.7380899999999926 14.3911331111684611   T   T   T
 13.1733993335053796 64.5369099999999918 14.3911331111684611   T   T   T
 14.2711826112974940 51.8094099999999926 15.4889163889605754   T   T   T
 16.4667491668817263 66.9805899999999923 15.4889163889605754   T   T   T
 16.4667491668817263 60.2944099999999992 15.4889163889605754   T   T   T
 15.3689658890896101 56.0519099999999995 14.3911331111684611   T   T   T
 13.1733993335053796 54.2530899999999932 14.3911331111684611   T   T   T
 14.2711826112974940 61.1259399999999999 15.4889163889605754   T   T   T
 15.3689658890896101 65.3684399999999926 14.3911331111684611   T   T   T
 13.1733993335053796 61.9065599999999989 14.3911331111684611   T   T   T
 14.2711826112974940 66.1490599999999915 15.4889163889605754   T   T   T
 16.4667491668817263 52.6409399999999934 15.4889163889605754   T   T   T
 16.4667491668817263 57.6640599999999921 15.4889163889605754   T   T   T
 15.3689658890896101 53.4215599999999924 14.3911331111684611   T   T   T
 13.1733993335053796 56.8834399999999931 14.3911331111684611   T   T   T
 16.4667491668817263 58.4955899999999929 17.6844829445448077   T   T   T
 13.1733993335053796 62.7380899999999926 16.5866996667526934   T   T   T
 15.3689658890896101 64.5369099999999918 16.5866996667526934   T   T   T
 16.4667491668817263 51.8094099999999926 17.6844829445448077   T   T   T
 14.2711826112974940 66.9805899999999923 17.6844829445448042   T   T   T
 14.2711826112974940 60.2944099999999992 17.6844829445448042   T   T   T
 13.1733993335053796 56.0519099999999924 16.5866996667526934   T   T   T
 15.3689658890896101 54.2530899999999932 16.5866996667526934   T   T   T
 16.4667491668817263 61.1259399999999999 17.6844829445448077   T   T   T
 13.1733993335053796 65.3684399999999926 16.5866996667526934   T   T   T
 15.3689658890896101 61.9065599999999989 16.5866996667526934   T   T   T
 16.4667491668817263 66.1490599999999915 17.6844829445448077   T   T   T
 14.2711826112974940 52.6409399999999934 17.6844829445448042   T   T   T
 14.2711826112974940 57.6640599999999921 17.6844829445448042   T   T   T
 13.1733993335053796 53.4215599999999924 16.5866996667526934   T   T   T
 15.3689658890896101 56.8834399999999931 16.5866996667526934   T   T   T
