Mo C  Mo C  Mo C  Mo C  Mo C  Mo C  Mo C  Mo C  Mo C  Mo C  Mo C  Mo C  Mo C  Mo C  Mo C  Mo C  Mo C  Mo C  Mo C  Mo C  Mo C  Mo C  Mo C  Mo C  Mo C  Mo C  Mo C  Mo C  Mo C  Mo C  Mo C  Mo C  Mo C  Mo C  Mo C  Mo C 
 1.0000000000000000
    23.0116217811783095    0.0000000000000000    0.0000000000000000
     0.0000000000000000   15.6119999999999983    0.0000000000000000
     0.0000000000000000    0.0000000000000000   29.9287306878197619
 Mo  C   Mo  C   Mo  C   Mo  C   Mo  C   Mo  C   Mo  C   Mo  C   Mo  C   Mo  C   Mo  C   Mo  C   Mo  C   Mo  C   Mo  C   Mo  C   Mo  C   Mo  C   Mo  C   Mo  C   Mo  C   Mo  C   Mo  C   Mo  C   Mo  C   Mo  C   Mo  C   Mo  C   Mo  C   Mo  C   Mo  C   Mo  C   Mo  C   Mo  C   Mo  C   Mo  C  
   4   2   4   2   4   2   4   2   4   2   4   2   4   2   4   2   4   2   4   2   4   2   4   2   4   2   4   2   4   2   4   2   4   2   4   2   4   2   4   1   4   2   4   2   4   2   4   2   4   2   4   2   4   2   4   2   4   2   4   2   4   2   4   2   4   2   4   2   4   2   4   2
Selective dynamics
Cartesian
  0.1596382556141553  4.7876800000000008  8.8938222901274706   F   F   F
  2.7595593845514865  0.4163199999999999  9.8621297710988998   F   F   F
  5.4545073725600277  3.0183200000000001 10.7559520612263686   F   F   F
  5.1352308613317170  2.1856800000000001  8.0000000000000000   F   F   F
  5.9600571304443370  3.9030000000000005  8.8565796947054931   F   F   F
  3.1700822833645863  1.3009999999999999  8.0372425954219775   F   F   F
  3.0788358957797990  4.7876800000000008 12.6180818323252666   F   F   F
  5.6787570247171271  0.4163199999999999 13.5863893132966957   F   F   F
  0.7031644189995669  3.0183200000000001 14.4802116034241664   F   F   F
  0.3838879077712564  2.1856800000000001 11.7242595421977960   F   F   F
  1.2087141768838772  3.9030000000000005 12.5808392369032909   F   F   F
  6.0892799235302277  1.3009999999999999 11.7615021376197753   F   F   F
  5.9980335359454413  4.7876800000000008 16.3423413745230661   T   T   T
  0.9274140711566664  0.4163199999999999 17.3106488554944953   T   T   T
  3.6223620591652090  3.0183200000000001 18.2044711456219659   T   T   T
  3.3030855479368983  2.1856800000000001 15.4485190843955955   T   T   T
  4.1279118170495188  3.9030000000000005 16.3050987791010868   T   T   T
  1.3379369699697672  1.3009999999999999 15.4857616798175712   T   T   T
  1.2466905823849788  4.7876800000000008 20.0666009167208621   T   T   T
  3.8466117113223084  0.4163199999999999 21.0349083976922913   T   T   T
  6.5415596993308514  3.0183200000000001 21.9287306878197619   T   T   T
  6.2222831881025407  2.1856800000000001 19.1727786265933915   T   T   T
  7.0471094572151616  3.9030000000000005 20.0293583212988864   T   T   T
  4.2571346101354095  1.3009999999999999 19.2100212220153708   T   T   T
  0.1596382556141553  9.9916800000000006  8.8938222901274706   F   F   F
  2.7595593845514865  5.6203199999999995  9.8621297710988998   F   F   F
  5.4545073725600277  8.2223199999999999 10.7559520612263686   F   F   F
  5.1352308613317170  7.3896800000000002  8.0000000000000000   F   F   F
  5.9600571304443370  9.1069999999999993  8.8565796947054931   F   F   F
  3.1700822833645863  6.5049999999999999  8.0372425954219775   F   F   F
  3.0788358957797990  9.9916800000000006 12.6180818323252666   F   F   F
  5.6787570247171271  5.6203199999999995 13.5863893132966957   F   F   F
  0.7031644189995669  8.2223199999999999 14.4802116034241664   F   F   F
  0.3838879077712564  7.3896800000000002 11.7242595421977960   F   F   F
  1.2087141768838772  9.1069999999999993 12.5808392369032909   F   F   F
  6.0892799235302277  6.5049999999999999 11.7615021376197753   F   F   F
  5.9980335359454413  9.9916800000000006 16.3423413745230661   T   T   T
  0.9274140711566664  5.6203199999999995 17.3106488554944953   T   T   T
  3.6223620591652090  8.2223199999999999 18.2044711456219659   T   T   T
  3.3030855479368983  7.3896800000000002 15.4485190843955955   T   T   T
  4.1279118170495188  9.1069999999999993 16.3050987791010868   T   T   T
  1.3379369699697672  6.5049999999999999 15.4857616798175712   T   T   T
  1.2466905823849788  9.9916800000000006 20.0666009167208621   T   T   T
  3.8466117113223084  5.6203199999999995 21.0349083976922913   T   T   T
  6.5415596993308514  8.2223199999999999 21.9287306878197619   T   T   T
  6.2222831881025407  7.3896800000000002 19.1727786265933915   T   T   T
  7.0471094572151616  9.1069999999999993 20.0293583212988864   T   T   T
  4.2571346101354095  6.5049999999999999 19.2100212220153708   T   T   T
  0.1596382556141553 15.1956799999999994  8.8938222901274706   F   F   F
  2.7595593845514865 10.8243200000000002  9.8621297710988998   F   F   F
  5.4545073725600277 13.4263200000000005 10.7559520612263686   F   F   F
  5.1352308613317170 12.5936799999999991  8.0000000000000000   F   F   F
  5.9600571304443370 14.3109999999999999  8.8565796947054931   F   F   F
  3.1700822833645863 11.7089999999999996  8.0372425954219775   F   F   F
  3.0788358957797990 15.1956799999999994 12.6180818323252666   F   F   F
  5.6787570247171271 10.8243200000000002 13.5863893132966957   F   F   F
  0.7031644189995669 13.4263200000000005 14.4802116034241664   F   F   F
  0.3838879077712564 12.5936799999999991 11.7242595421977960   F   F   F
  1.2087141768838772 14.3109999999999999 12.5808392369032909   F   F   F
  6.0892799235302277 11.7089999999999996 11.7615021376197753   F   F   F
  5.9980335359454413 15.1956799999999994 16.3423413745230661   T   T   T
  0.9274140711566664 10.8243200000000002 17.3106488554944953   T   T   T
  3.6223620591652090 13.4263200000000005 18.2044711456219659   T   T   T
  3.3030855479368983 12.5936799999999991 15.4485190843955955   T   T   T
  4.1279118170495188 14.3109999999999999 16.3050987791010868   T   T   T
  1.3379369699697672 11.7089999999999996 15.4857616798175712   T   T   T
  1.2466905823849788 15.1956799999999994 20.0666009167208621   T   T   T
  3.8466117113223084 10.8243200000000002 21.0349083976922913   T   T   T
  6.5415596993308514 13.4263200000000005 21.9287306878197619   T   T   T
  6.2222831881025407 12.5936799999999991 19.1727786265933915   T   T   T
  7.0471094572151616 14.3109999999999999 20.0293583212988864   T   T   T
  4.2571346101354095 11.7089999999999996 19.2100212220153708   T   T   T
  7.8301788493402578  4.7876800000000008  8.8938222901274706   F   F   F
 10.4300999782775889  0.4163199999999999  9.8621297710988998   F   F   F
 13.1250479662861306  3.0183200000000001 10.7559520612263686   F   F   F
 12.8057714550578190  2.1856800000000001  8.0000000000000000   F   F   F
 13.6305977241704390  3.9030000000000005  8.8565796947054931   F   F   F
 10.8406228770906896  1.3009999999999999  8.0372425954219775   F   F   F
 10.7493764895059023  4.7876800000000008 12.6180818323252666   F   F   F
 13.3492976184432308  0.4163199999999999 13.5863893132966957   F   F   F
  8.3737050127256705  3.0183200000000001 14.4802116034241664   F   F   F
  8.0544285014973589  2.1856800000000001 11.7242595421977960   F   F   F
  8.8792547706099807  3.9030000000000005 12.5808392369032909   F   F   F
 13.7598205172563297  1.3009999999999999 11.7615021376197753   F   F   F
 13.6685741296715442  4.7876800000000008 16.3423413745230661   T   T   T
  8.5979546648827689  0.4163199999999999 17.3106488554944953   T   T   T
 11.2929026528913123  3.0183200000000001 18.2044711456219659   T   T   T
 10.9736261416630008  2.1856800000000001 15.4485190843955955   T   T   T
 11.7984524107756208  3.9030000000000005 16.3050987791010868   T   T   T
  9.0084775636958696  1.3009999999999999 15.4857616798175712   T   T   T
  8.9172311761110823  4.7876800000000008 20.0666009167208621   T   T   T
 11.5171523050484108  0.4163199999999999 21.0349083976922913   T   T   T
 14.2121002930569542  3.0183200000000001 21.9287306878197619   T   T   T
 13.8928237818286426  2.1856800000000001 19.1727786265933915   T   T   T
 14.7176500509412644  3.9030000000000005 20.0293583212988864   T   T   T
 11.9276752038615115  1.3009999999999999 19.2100212220153708   T   T   T
  7.8301788493402578  9.9916800000000006  8.8938222901274706   F   F   F
 10.4300999782775889  5.6203199999999995  9.8621297710988998   F   F   F
 13.1250479662861306  8.2223199999999999 10.7559520612263686   F   F   F
 12.8057714550578190  7.3896800000000002  8.0000000000000000   F   F   F
 13.6305977241704390  9.1069999999999993  8.8565796947054931   F   F   F
 10.8406228770906896  6.5049999999999999  8.0372425954219775   F   F   F
 10.7493764895059023  9.9916800000000006 12.6180818323252666   F   F   F
 13.3492976184432308  5.6203199999999995 13.5863893132966957   F   F   F
  8.3737050127256705  8.2223199999999999 14.4802116034241664   F   F   F
  8.0544285014973589  7.3896800000000002 11.7242595421977960   F   F   F
  8.8792547706099807  9.1069999999999993 12.5808392369032909   F   F   F
 13.7598205172563297  6.5049999999999999 11.7615021376197753   F   F   F
 13.6685741296715442  9.9916800000000006 16.3423413745230661   T   T   T
  8.5979546648827689  5.6203199999999995 17.3106488554944953   T   T   T
 11.2929026528913123  8.2223199999999999 18.2044711456219659   T   T   T
 10.9736261416630008  7.3896800000000002 15.4485190843955955   T   T   T
 11.7984524107756208  9.1069999999999993 16.3050987791010868   T   T   T
  9.0084775636958696  6.5049999999999999 15.4857616798175712   T   T   T
  8.9172311761110823  9.9916800000000006 20.0666009167208621   T   T   T
 11.5171523050484108  5.6203199999999995 21.0349083976922913   T   T   T
 14.2121002930569542  8.2223199999999999 21.9287306878197619   T   T   T
 13.8928237818286426  7.3896800000000002 19.1727786265933915   T   T   T
 11.9276752038615115  6.5049999999999999 19.2100212220153708   T   T   T
  7.8301788493402578 15.1956799999999994  8.8938222901274706   F   F   F
 10.4300999782775889 10.8243200000000002  9.8621297710988998   F   F   F
 13.1250479662861306 13.4263200000000005 10.7559520612263686   F   F   F
 12.8057714550578190 12.5936799999999991  8.0000000000000000   F   F   F
 13.6305977241704390 14.3109999999999999  8.8565796947054931   F   F   F
 10.8406228770906896 11.7089999999999996  8.0372425954219775   F   F   F
 10.7493764895059023 15.1956799999999994 12.6180818323252666   F   F   F
 13.3492976184432308 10.8243200000000002 13.5863893132966957   F   F   F
  8.3737050127256705 13.4263200000000005 14.4802116034241664   F   F   F
  8.0544285014973589 12.5936799999999991 11.7242595421977960   F   F   F
  8.8792547706099807 14.3109999999999999 12.5808392369032909   F   F   F
 13.7598205172563297 11.7089999999999996 11.7615021376197753   F   F   F
 13.6685741296715442 15.1956799999999994 16.3423413745230661   T   T   T
  8.5979546648827689 10.8243200000000002 17.3106488554944953   T   T   T
 11.2929026528913123 13.4263200000000005 18.2044711456219659   T   T   T
 10.9736261416630008 12.5936799999999991 15.4485190843955955   T   T   T
 11.7984524107756208 14.3109999999999999 16.3050987791010868   T   T   T
  9.0084775636958696 11.7089999999999996 15.4857616798175712   T   T   T
  8.9172311761110823 15.1956799999999994 20.0666009167208621   T   T   T
 11.5171523050484108 10.8243200000000002 21.0349083976922913   T   T   T
 14.2121002930569542 13.4263200000000005 21.9287306878197619   T   T   T
 13.8928237818286426 12.5936799999999991 19.1727786265933915   T   T   T
 14.7176500509412644 14.3109999999999999 20.0293583212988864   T   T   T
 11.9276752038615115 11.7089999999999996 19.2100212220153708   T   T   T
 15.5007194430663606  4.7876800000000008  8.8938222901274706   F   F   F
 18.1006405720036909  0.4163199999999999  9.8621297710988998   F   F   F
 20.7955885600122343  3.0183200000000001 10.7559520612263686   F   F   F
 20.4763120487839245  2.1856800000000001  8.0000000000000000   F   F   F
 21.3011383178965445  3.9030000000000005  8.8565796947054931   F   F   F
 18.5111634708167934  1.3009999999999999  8.0372425954219775   F   F   F
 18.4199170832320043  4.7876800000000008 12.6180818323252666   F   F   F
 21.0198382121693328  0.4163199999999999 13.5863893132966957   F   F   F
 16.0442456064517742  3.0183200000000001 14.4802116034241664   F   F   F
 15.7249690952234626  2.1856800000000001 11.7242595421977960   F   F   F
 16.5497953643360844  3.9030000000000005 12.5808392369032909   F   F   F
 21.4303611109824317  1.3009999999999999 11.7615021376197753   F   F   F
 21.3391147233976461  4.7876800000000008 16.3423413745230661   T   T   T
 16.2684952586088727  0.4163199999999999 17.3106488554944953   T   T   T
 18.9634432466174161  3.0183200000000001 18.2044711456219659   T   T   T
 18.6441667353891027  2.1856800000000001 15.4485190843955955   T   T   T
 19.4689930045017263  3.9030000000000005 16.3050987791010868   T   T   T
 16.6790181574219716  1.3009999999999999 15.4857616798175712   T   T   T
 16.5877717698371860  4.7876800000000008 20.0666009167208621   T   T   T
 19.1876928987745146  0.4163199999999999 21.0349083976922913   T   T   T
 21.8826408867830580  3.0183200000000001 21.9287306878197619   T   T   T
 21.5633643755547482  2.1856800000000001 19.1727786265933915   T   T   T
 22.3881906446673682  3.9030000000000005 20.0293583212988864   T   T   T
 19.5982157975876135  1.3009999999999999 19.2100212220153708   T   T   T
 15.5007194430663606  9.9916800000000006  8.8938222901274706   F   F   F
 18.1006405720036909  5.6203199999999995  9.8621297710988998   F   F   F
 20.7955885600122343  8.2223199999999999 10.7559520612263686   F   F   F
 20.4763120487839245  7.3896800000000002  8.0000000000000000   F   F   F
 21.3011383178965445  9.1069999999999993  8.8565796947054931   F   F   F
 18.5111634708167934  6.5049999999999999  8.0372425954219775   F   F   F
 18.4199170832320043  9.9916800000000006 12.6180818323252666   F   F   F
 21.0198382121693328  5.6203199999999995 13.5863893132966957   F   F   F
 16.0442456064517742  8.2223199999999999 14.4802116034241664   F   F   F
 15.7249690952234626  7.3896800000000002 11.7242595421977960   F   F   F
 16.5497953643360844  9.1069999999999993 12.5808392369032909   F   F   F
 21.4303611109824317  6.5049999999999999 11.7615021376197753   F   F   F
 21.3391147233976461  9.9916800000000006 16.3423413745230661   T   T   T
 16.2684952586088727  5.6203199999999995 17.3106488554944953   T   T   T
 18.9634432466174161  8.2223199999999999 18.2044711456219659   T   T   T
 18.6441667353891027  7.3896800000000002 15.4485190843955955   T   T   T
 19.4689930045017263  9.1069999999999993 16.3050987791010868   T   T   T
 16.6790181574219716  6.5049999999999999 15.4857616798175712   T   T   T
 16.5877717698371860  9.9916800000000006 20.0666009167208621   T   T   T
 19.1876928987745146  5.6203199999999995 21.0349083976922913   T   T   T
 21.8826408867830580  8.2223199999999999 21.9287306878197619   T   T   T
 21.5633643755547482  7.3896800000000002 19.1727786265933915   T   T   T
 22.3881906446673682  9.1069999999999993 20.0293583212988864   T   T   T
 19.5982157975876135  6.5049999999999999 19.2100212220153708   T   T   T
 15.5007194430663606 15.1956799999999994  8.8938222901274706   F   F   F
 18.1006405720036909 10.8243200000000002  9.8621297710988998   F   F   F
 20.7955885600122343 13.4263200000000005 10.7559520612263686   F   F   F
 20.4763120487839245 12.5936799999999991  8.0000000000000000   F   F   F
 21.3011383178965445 14.3109999999999999  8.8565796947054931   F   F   F
 18.5111634708167934 11.7089999999999996  8.0372425954219775   F   F   F
 18.4199170832320043 15.1956799999999994 12.6180818323252666   F   F   F
 21.0198382121693328 10.8243200000000002 13.5863893132966957   F   F   F
 16.0442456064517742 13.4263200000000005 14.4802116034241664   F   F   F
 15.7249690952234626 12.5936799999999991 11.7242595421977960   F   F   F
 16.5497953643360844 14.3109999999999999 12.5808392369032909   F   F   F
 21.4303611109824317 11.7089999999999996 11.7615021376197753   F   F   F
 21.3391147233976461 15.1956799999999994 16.3423413745230661   T   T   T
 16.2684952586088727 10.8243200000000002 17.3106488554944953   T   T   T
 18.9634432466174161 13.4263200000000005 18.2044711456219659   T   T   T
 18.6441667353891027 12.5936799999999991 15.4485190843955955   T   T   T
 19.4689930045017263 14.3109999999999999 16.3050987791010868   T   T   T
 16.6790181574219716 11.7089999999999996 15.4857616798175712   T   T   T
 16.5877717698371860 15.1956799999999994 20.0666009167208621   T   T   T
 19.1876928987745146 10.8243200000000002 21.0349083976922913   T   T   T
 21.8826408867830580 13.4263200000000005 21.9287306878197619   T   T   T
 21.5633643755547482 12.5936799999999991 19.1727786265933915   T   T   T
 22.3881906446673682 14.3109999999999999 20.0293583212988864   T   T   T
 19.5982157975876135 11.7089999999999996 19.2100212220153708   T   T   T
