Mo Ir Mo C  Mo C  Mo C  Mo C 
 1.0000000000000000
    15.0501582678457879    0.0000000000000000   -3.0762724445005030
     5.7317581691534034   12.8096580662342028   -1.0307869209998302
     0.0000000000000000    0.0000000000000000   31.3743593729429691
 Mo  Ir  Mo  C   Mo  C   Mo  C   Mo  C  
  20   1   3  12  24  12  24  12  24  12
Selective dynamics
Cartesian
  2.3393328694249784  0.0875326634526000 14.5665048011428517   T   T   T
  5.8029856089248444  2.2224756744916339 16.9756208817356260   T   T   T
  9.2666383484247081  4.3574186855306669 10.1038590377999142   F   F   F
  9.9831081195688842  5.9586259438099427 16.9356691160712920   T   T   T
  3.0558026405691536  1.6887399217318739 12.1174369548857541   F   F   F
  6.5194553800690178  3.8236829327709074 14.5265530354785248   T   T   T
  2.5572594123632366  5.2498248641449852 14.3188349598786893   T   T   T
  3.1550330672864000  0.9799388420669167 17.2433445009713751   T   T   T
  6.6186858067862646  3.1148818531059503 10.3715826570356722   F   F   F
  4.4887421828575054  4.8911544382904273 16.5001791869000307   T   T   T
  5.0865158377806692  0.6212684162123594 10.1438108034642411   F   F   F
  8.5501685772805338  2.7562114272513920 12.5529268840570118   F   F   F
  0.4078500989307104  0.4462030893071580 12.3851605741215085   F   F   F
  3.8715028384305752  2.5811461003461913 14.7942766547142810   T   T   T
  7.3351555779304416  4.7160891113852248 17.2033927353070517   T   T   T
  7.8336988061363595  1.1550041689721162 15.0019947303141095   T   T   T
  3.7722724117133302  3.2899471800111502 18.9492470331571354   T   T   T
  7.2359251512131948  5.4248901910501832 12.0774851892214272   F   F   F
  5.9022160356420903  1.5136745948266745 12.8206505032927680   F   F   F
  1.8407896412190614  3.6486176058657080 16.7679028061357904   T   T   T
  5.3044423807189265  5.7835606169047411 19.1770188867285611   T   T   T
  8.0516253490746141  6.3172963696645015 14.7543248890499505   T   T   T
  1.1243198700748842  2.0474103475864331 19.2169706523928880   T   T   T
  4.5879726095747495  4.1823533586254662 12.3452088084571816   F   F   F
  0.3582348855720877  0.8006036291396375 14.4626457633429339   T   T   T
  3.8218876250719518  2.9355466401786701 16.8717618439357011   T   T   T
  7.2855403645718173  5.0704896512177040 10.0000000000000000   F   F   F
  2.5076441990046141  5.6042254039774635 16.3963201491001200   T   T   T
  3.1054178539277766  1.3343393818993960 19.3208296901928023   T   T   T
  6.5690705934276412  3.4692823929384291 12.4490678462570976   F   F   F
  2.8065310264661951  3.4692823929384304 13.2181359573822235   F   F   F
  6.2701837659660598  5.6042254039774635 15.6272520379749942   T   T   T
  6.8679574208892245  1.3343393818993956 18.5517615790676764   T   T   T
  4.1207744525335350  0.8006036291396379 13.6935776522178081   T   T   T
  7.5844271920333997  2.9355466401786710 16.1026937328105788   T   T   T
  3.5230007976103699  5.0704896512177040 10.7690681111251259   F   F   F
  5.2052119540016797  6.4923616965697013 14.0511113406429367   T   T   T
  8.6688646935015470  8.6273047076087348 16.4602274212357109   T   T   T
 12.1325174330014107 10.7622477186477674  9.5884655772999992   F   F   F
 12.8489872041455868 12.3634549769270450 16.4202756555713769   T   T   T
  5.9216817251458558  8.0935689548489762 11.6020434943858390   F   F   F
  9.3853344646457195 10.2285119658880088 14.0111595749786098   T   T   T
  5.4231384969399379 11.6546538972620866 13.8034414993787742   T   T   T
  6.0209121518631017  7.3847678751840178 16.7279510404714600   T   T   T
  9.4845648913629663  9.5197108862230522  9.8561891965357571   F   F   F
  7.3546212674342071 11.2959834714075278 15.9847857264001156   T   T   T
  7.9523949223573709  7.0260974493294608  9.6284173429643261   F   F   F
 11.4160476618572346  9.1610404603684934 12.0375334235570968   F   F   F
  3.2737291835074123  6.8510321224242592 11.8697671136215934   F   F   F
  6.7373819230072769  8.9859751334632918 14.2788831942143659   T   T   T
 10.2010346625071442 11.1209181445023262 16.6879992748071366   T   T   T
 10.6995778907130621  7.5598332020892176 14.4866012698141944   T   T   T
  6.6381514962900319  9.6947762131282520 18.4338535726572204   T   T   T
 10.1018042357898956 11.8297192241672846 11.5620917287215121   F   F   F
  8.7680951202187920  7.9185036279437764 12.3052570427928529   F   F   F
  4.7066687257957636 10.0534466389828090 16.2525093456358753   T   T   T
  8.1703214652956291 12.1883896500218434 18.6616254262286461   T   T   T
 10.9175044336513167 12.7221254027816038 14.2389314285500355   T   T   T
  3.9901989546515857  8.4522393807035350 18.7015771918929730   T   T   T
  7.4538516941514512 10.5871823917425676 11.8298153479572665   F   F   F
  3.2241139701487893  7.2054326622567384 13.9472523028430189   T   T   T
  6.6877667096486535  9.3403756732957710 16.3563683834357860   T   T   T
 10.1514194491485199 11.4753186843348054  9.4846065395000849   F   F   F
  5.3735232835813154 12.0090544370945658 15.8809266886002050   T   T   T
  5.9712969385044783  7.7391684150164970 18.8054362296928872   T   T   T
  9.4349496780043438  9.8741114260555314 11.9336743857571825   F   F   F
  5.6724101110428968  9.8741114260555314 12.7027424968823084   F   F   F
  9.1360628505427606 12.0090544370945658 15.1118585774750791   T   T   T
  9.7338365054659270  7.7391684150164970 18.0363681185677613   T   T   T
  6.9866535371102367  7.2054326622567393 13.1781841917178930   F   F   F
 10.4503062766101014  9.3403756732957728 15.5873002723106637   T   T   T
  6.3888798821870711 11.4753186843348054 10.2536746506252108   F   F   F
  9.8644120033478728  0.0875326634526000 13.0283685788926000   F   F   F
 13.3280647428477383  2.2224756744916339 15.4374846594853743   T   T   T
 16.7917174823476003  4.3574186855306669  8.5657228155496625   F   F   F
 17.5081872534917764  5.9586259438099427 15.3975328938210403   T   T   T
 10.5808817744920471  1.6887399217318739 10.5793007326355024   F   F   F
 14.0445345139919127  3.8236829327709074 12.9884168132282731   F   F   F
 10.0823385462861310  5.2498248641449852 12.7806987376284376   F   F   F
 10.6801122012092939  0.9799388420669167 15.7052082787211233   T   T   T
 14.1437649407091577  3.1148818531059503  8.8334464347854205   F   F   F
 12.0138213167803993  4.8911544382904273 14.9620429646497790   T   T   T
 12.6115949717035640  0.6212684162123594  8.6056745812139894   F   F   F
 16.0752477112034278  2.7562114272513920 11.0147906618067601   F   F   F
  7.9329292328536045  0.4462030893071580 10.8470243518712568   F   F   F
 11.3965819723534700  2.5811461003461913 13.2561404324640293   F   F   F
 14.8602347118533356  4.7160891113852248 15.6652565130568000   T   T   T
 15.3587779400592535  1.1550041689721162 13.4638585080638578   F   F   F
 11.2973515456362250  3.2899471800111502 17.4111108109068837   T   T   T
 14.7610042851360888  5.4248901910501832 10.5393489669711755   F   F   F
 13.4272951695649851  1.5136745948266745 11.2825142810425163   F   F   F
  9.3658687751419549  3.6486176058657080 15.2297665838855387   T   T   T
 12.8295215146418204  5.7835606169047411 17.6388826644783094   T   T   T
 15.5767044829975081  6.3172963696645015 13.2161886667996988   F   F   F
  8.6493990039977788  2.0474103475864331 17.6788344301426363   T   T   T
 12.1130517434976426  4.1823533586254662 10.8070725862069299   F   F   F
  7.8833140194949820  0.8006036291396375 12.9245095410926822   F   F   F
 11.3469667589948457  2.9355466401786701 15.3336256216854494   T   T   T
 14.8106194984947113  5.0704896512177040  8.4618637777497483   F   F   F
 10.0327233329275085  5.6042254039774635 14.8581839268498683   T   T   T
 10.6304969878506697  1.3343393818993960 17.7826934679425506   T   T   T
 14.0941497273505352  3.4692823929384291 10.9109316240068459   F   F   F
 10.3316101603890900  3.4692823929384304 11.6799997351319718   F   F   F
 13.7952628998889537  5.6042254039774635 14.0891158157247425   T   T   T
 14.3930365548121184  1.3343393818993956 17.0136253568174247   T   T   T
 11.6458535864564290  0.8006036291396379 12.1554414299675564   F   F   F
 15.1095063259562927  2.9355466401786710 14.5645575105603271   T   T   T
 11.0480799315332643  5.0704896512177040  9.2309318888748741   F   F   F
 12.7302910879245736  6.4923616965697013 12.5129751183926849   F   F   F
 16.1939438274244409  8.6273047076087348 14.9220911989854592   T   T   T
 19.6575965669243047 10.7622477186477674  8.0503293550497474   F   F   F
 20.3740663380684808 12.3634549769270450 14.8821394333211252   T   T   T
 13.4467608590687480  8.0935689548489762 10.0639072721355873   F   F   F
 16.9104135985686135 10.2285119658880088 12.4730233527283580   F   F   F
 12.9482176308628318 11.6546538972620866 12.2653052771285225   F   F   F
 13.5459912857859948  7.3847678751840178 15.1898148182212083   T   T   T
 17.0096440252858585  9.5197108862230522  8.3180529742855054   F   F   F
 14.8797004013571001 11.2959834714075278 14.4466495041498639   T   T   T
 15.4774740562802648  7.0260974493294608  8.0902811207140743   F   F   F
 18.9411267957801286  9.1610404603684934 10.4993972013068451   F   F   F
 10.7988083174303053  6.8510321224242592 10.3316308913713417   F   F   F
 14.2624610569301709  8.9859751334632918 12.7407469719641142   F   F   F
 17.7261137964300346 11.1209181445023262 15.1498630525568849   T   T   T
 18.2246570246359525  7.5598332020892176 12.9484650475639427   F   F   F
 14.1632306302129258  9.6947762131282520 16.8957173504069686   T   T   T
 17.6268833697127896 11.8297192241672846 10.0239555064712604   F   F   F
 16.2931742541416860  7.9185036279437764 10.7671208205426012   F   F   F
 12.2317478597186557 10.0534466389828090 14.7143731233856236   T   T   T
 15.6954005992185213 12.1883896500218434 17.1234892039783944   T   T   T
 18.4425835675742107 12.7221254027816038 12.7007952062997838   F   F   F
 11.5152780885744797  8.4522393807035350 17.1634409696427213   T   T   T
 14.9789308280743434 10.5871823917425676 10.2916791257070148   F   F   F
 10.7491931040716828  7.2054326622567384 12.4091160805927672   F   F   F
 14.2128458435715466  9.3403756732957710 14.8182321611855343   T   T   T
 17.6764985830714139 11.4753186843348054  7.9464703172498332   F   F   F
 12.8986024175042093 12.0090544370945658 14.3427904663499532   T   T   T
 13.4963760724273705  7.7391684150164970 17.2673000074426355   T   T   T
 16.9600288119272378  9.8741114260555314 10.3955381635069308   F   F   F
 13.1974892449657908  9.8741114260555314 11.1646062746320567   F   F   F
 16.6611419844656545 12.0090544370945658 13.5737223552248274   F   F   F
 17.2589156393888175  7.7391684150164970 16.4982318963175096   T   T   T
 14.5117326710331298  7.2054326622567393 11.6400479694676413   F   F   F
 17.9753854105329935  9.3403756732957728 14.0491640500604120   T   T   T
 13.9139590161099651 11.4753186843348054  8.7155384283749591   F   F   F
