Mo C  Mo C  Mo C  Mo C  Mo C  Mo C  Mo C  Mo C  Mo C  Mo C  Mo C  Mo C  Mo C  Mo C  Mo C  Mo C  Mo C  Mo C  Mo C  Ru Mo C  Mo C  Mo C  Mo C  Mo C  Mo C  Mo C  Mo C  Mo C  Mo C  Mo C  Mo C  Mo C  Mo C  Mo C  Mo C  Mo C 
 1.0000000000000000
    22.9632528401356915    0.0000000000000000    0.0000000000000000
     0.0000000000000002   15.5850000000000009    0.0000000000000000
     0.0000000000000000    0.0000000000000000   29.9399648529109896
 Mo  C   Mo  C   Mo  C   Mo  C   Mo  C   Mo  C   Mo  C   Mo  C   Mo  C   Mo  C   Mo  C   Mo  C   Mo  C   Mo  C   Mo  C   Mo  C   Mo  C   Mo  C   Mo  C   Ru  Mo  C   Mo  C   Mo  C   Mo  C   Mo  C   Mo  C   Mo  C   Mo  C   Mo  C   Mo  C   Mo  C   Mo  C   Mo  C   Mo  C   Mo  C   Mo  C   Mo  C  
   8   4   8   4   8   4   8   4   8   4   8   4   8   4   8   4   8   4   8   4   8   4   8   4   8   4   8   4   8   4   8   4   8   4   8   4   8   4   1   7   4   8   4   8   4   8   4   8   4   8   4   8   4   8   4   8   4   8   4   8   4   8   4   8   4   8   4   8   4   8   4   8   4
Selective dynamics
Cartesian
  1.5953086004423189  3.0286849999999994 10.7879929705821986   F   F   F
  2.7797384888970629  0.4311850000000001  9.8586619803881312   F   F   F
  6.6069472955863446  2.1663150000000004  9.8586619803881312   F   F   F
  5.1485982658065508  0.4311850000000003  8.0000000000000000   F   F   F
  0.1369595706625253  4.7638150000000001  8.9293309901940674   F   F   F
  3.9641683773518070  3.0286849999999998  8.9293309901940674   F   F   F
  5.4225174071316005  4.7638150000000001 10.7879929705821986   F   F   F
  1.3213894591172688  2.1663150000000004  7.9999999999999991   F   F   F
  7.3361218104762420  3.8962500000000002 10.7879929705821986   F   F   F
  3.2349938624619092  1.2987500000000001  7.9999999999999991   F   F   F
  7.0622026691511914  1.2987500000000001  8.0000000000000000   F   F   F
  3.5089130037869602  3.8962500000000002 10.7879929705821986   F   F   F
  4.5120066600019060  3.0286849999999990 14.5053169313584611   F   F   F
  5.6964365484566502  0.4311849999999999 13.5759859411643937   F   F   F
  1.8692277417673693  2.1663150000000000 13.5759859411643937   F   F   F
  0.4108787119875739  0.4311850000000000 11.7173239607762625   F   F   F
  3.0536576302221126  4.7638150000000001 12.6466549509703299   F   F   F
  6.8808664369113943  3.0286849999999994 12.6466549509703299   F   F   F
  0.6847978533126243  4.7638150000000001 14.5053169313584611   F   F   F
  4.2380875186768572  2.1663150000000000 11.7173239607762660   F   F   F
  2.5984022566572671  3.8962499999999998 14.5053169313584647   F   F   F
  6.1516919220214978  1.2987499999999998 11.7173239607762625   F   F   F
  2.3244831153322147  1.2987499999999998 11.7173239607762660   F   F   F
  6.4256110633465475  3.8962499999999998 14.5053169313584611   F   F   F
  7.4287047195614964  3.0286849999999990 18.2226408921347272   T   T   T
  0.9587169946376765  0.4311849999999995 17.2933099019406598   T   T   T
  4.7859258013269583  2.1663150000000000 17.2933099019406598   T   T   T
  3.3275767715471645  0.4311849999999997 15.4346479215525250   T   T   T
  5.9703556897817016  4.7638149999999992 16.3639789117465924   T   T   T
  2.1431468830924199  3.0286849999999994 16.3639789117465924   T   T   T
  3.6014959128722150  4.7638149999999992 18.2226408921347236   T   T   T
  7.1547855782364458  2.1663150000000000 15.4346479215525285   T   T   T
  5.5151003162168575  3.8962499999999998 18.2226408921347307   T   T   T
  1.4139723682025220  1.2987499999999994 15.4346479215525285   T   T   T
  5.2411811748918034  1.2987499999999992 15.4346479215525285   T   T   T
  1.6878915095275724  3.8962499999999998 18.2226408921347236   T   T   T
  2.6909851657425206  3.0286849999999981 21.9399648529109896   T   T   T
  3.8754150541972652  0.4311849999999992 21.0106338627169258   T   T   T
  0.0482062475079803  2.1663149999999995 21.0106338627169258   T   T   T
  6.2442748311067540  0.4311849999999993 19.1519718823287910   T   T   T
  1.2326361359627251  4.7638149999999992 20.0813028725228584   T   T   T
  5.0598449426520107  3.0286849999999990 20.0813028725228584   T   T   T
  6.5181939724318001  4.7638149999999992 21.9399648529109896   T   T   T
  2.4170660244174700  2.1663149999999995 19.1519718823287910   T   T   T
  0.7773807623978796  3.8962499999999989 21.9399648529109896   T   T   T
  4.3306704277621089  1.2987499999999990 19.1519718823287910   T   T   T
  0.5034616210728292  1.2987499999999990 19.1519718823287910   T   T   T
  4.6045895690871594  3.8962499999999989 21.9399648529109896   T   T   T
  1.5953086004423189  8.2236849999999997 10.7879929705821986   F   F   F
  2.7797384888970629  5.6261850000000004  9.8586619803881312   F   F   F
  6.6069472955863446  7.3613150000000012  9.8586619803881312   F   F   F
  5.1485982658065508  5.6261850000000004  8.0000000000000000   F   F   F
  0.1369595706625253  9.9588150000000013  8.9293309901940674   F   F   F
  3.9641683773518070  8.2236849999999997  8.9293309901940674   F   F   F
  5.4225174071316005  9.9588150000000013 10.7879929705821986   F   F   F
  1.3213894591172688  7.3613150000000012  7.9999999999999991   F   F   F
  7.3361218104762420  9.0912500000000005 10.7879929705821986   F   F   F
  3.2349938624619092  6.4937500000000004  7.9999999999999991   F   F   F
  7.0622026691511914  6.4937500000000004  8.0000000000000000   F   F   F
  3.5089130037869602  9.0912500000000005 10.7879929705821986   F   F   F
  4.5120066600019060  8.2236849999999997 14.5053169313584611   F   F   F
  5.6964365484566502  5.6261850000000004 13.5759859411643937   F   F   F
  1.8692277417673693  7.3613150000000003 13.5759859411643937   F   F   F
  0.4108787119875740  5.6261850000000004 11.7173239607762625   F   F   F
  3.0536576302221126  9.9588150000000013 12.6466549509703299   F   F   F
  6.8808664369113943  8.2236849999999997 12.6466549509703299   F   F   F
  0.6847978533126243  9.9588150000000013 14.5053169313584611   F   F   F
  4.2380875186768572  7.3613150000000003 11.7173239607762660   F   F   F
  2.5984022566572671  9.0912500000000005 14.5053169313584647   F   F   F
  6.1516919220214978  6.4937500000000004 11.7173239607762625   F   F   F
  2.3244831153322147  6.4937500000000004 11.7173239607762660   F   F   F
  6.4256110633465475  9.0912500000000005 14.5053169313584611   F   F   F
  7.4287047195614964  8.2236849999999997 18.2226408921347272   T   T   T
  0.9587169946376765  5.6261849999999995 17.2933099019406598   T   T   T
  4.7859258013269583  7.3613150000000003 17.2933099019406598   T   T   T
  3.3275767715471645  5.6261849999999995 15.4346479215525250   T   T   T
  5.9703556897817016  9.9588149999999995 16.3639789117465924   T   T   T
  2.1431468830924199  8.2236849999999997 16.3639789117465924   T   T   T
  3.6014959128722150  9.9588149999999995 18.2226408921347236   T   T   T
  7.1547855782364458  7.3613150000000003 15.4346479215525285   T   T   T
  5.5151003162168575  9.0912500000000005 18.2226408921347307   T   T   T
  1.4139723682025220  6.4937499999999995 15.4346479215525285   T   T   T
  5.2411811748918034  6.4937499999999995 15.4346479215525285   T   T   T
  1.6878915095275724  9.0912500000000005 18.2226408921347236   T   T   T
  2.6909851657425206  8.2236849999999979 21.9399648529109896   T   T   T
  3.8754150541972652  5.6261849999999995 21.0106338627169258   T   T   T
  0.0482062475079803  7.3613149999999994 21.0106338627169258   T   T   T
  6.2442748311067540  5.6261849999999995 19.1519718823287910   T   T   T
  1.2326361359627251  9.9588149999999995 20.0813028725228584   T   T   T
  5.0598449426520107  8.2236849999999997 20.0813028725228584   T   T   T
  6.5181939724318001  9.9588149999999995 21.9399648529109896   T   T   T
  2.4170660244174700  7.3613149999999994 19.1519718823287910   T   T   T
  0.7773807623978796  9.0912499999999987 21.9399648529109896   T   T   T
  4.3306704277621089  6.4937499999999995 19.1519718823287910   T   T   T
  0.5034616210728292  6.4937499999999995 19.1519718823287910   T   T   T
  4.6045895690871594  9.0912499999999987 21.9399648529109896   T   T   T
  1.5953086004423189 13.4186850000000000 10.7879929705821986   F   F   F
  2.7797384888970629 10.8211849999999998  9.8586619803881312   F   F   F
  6.6069472955863446 12.5563150000000014  9.8586619803881312   F   F   F
  5.1485982658065508 10.8211850000000016  8.0000000000000000   F   F   F
  0.1369595706625254 15.1538150000000016  8.9293309901940674   F   F   F
  3.9641683773518070 13.4186850000000000  8.9293309901940674   F   F   F
  5.4225174071316005 15.1538150000000016 10.7879929705821986   F   F   F
  1.3213894591172688 12.5563150000000014  7.9999999999999991   F   F   F
  7.3361218104762420 14.2862500000000008 10.7879929705821986   F   F   F
  3.2349938624619092 11.6887500000000006  7.9999999999999991   F   F   F
  7.0622026691511914 11.6887500000000006  8.0000000000000000   F   F   F
  3.5089130037869602 14.2862500000000008 10.7879929705821986   F   F   F
  4.5120066600019060 13.4186850000000000 14.5053169313584611   F   F   F
  5.6964365484566502 10.8211849999999998 13.5759859411643937   F   F   F
  1.8692277417673693 12.5563150000000014 13.5759859411643937   F   F   F
  0.4108787119875740 10.8211849999999998 11.7173239607762625   F   F   F
  3.0536576302221126 15.1538150000000016 12.6466549509703299   F   F   F
  6.8808664369113943 13.4186850000000000 12.6466549509703299   F   F   F
  0.6847978533126244 15.1538150000000016 14.5053169313584611   F   F   F
  4.2380875186768572 12.5563150000000014 11.7173239607762660   F   F   F
  2.5984022566572671 14.2862500000000008 14.5053169313584647   F   F   F
  6.1516919220214978 11.6887500000000006 11.7173239607762625   F   F   F
  2.3244831153322147 11.6887500000000006 11.7173239607762660   F   F   F
  6.4256110633465475 14.2862500000000008 14.5053169313584611   F   F   F
  7.4287047195614964 13.4186850000000000 18.2226408921347272   T   T   T
  0.9587169946376766 10.8211849999999998 17.2933099019406598   T   T   T
  4.7859258013269583 12.5563150000000014 17.2933099019406598   T   T   T
  3.3275767715471645 10.8211849999999998 15.4346479215525250   T   T   T
  5.9703556897817016 15.1538149999999998 16.3639789117465924   T   T   T
  2.1431468830924199 13.4186850000000000 16.3639789117465924   T   T   T
  3.6014959128722150 15.1538149999999998 18.2226408921347236   T   T   T
  7.1547855782364458 12.5563150000000014 15.4346479215525285   T   T   T
  5.5151003162168575 14.2862500000000008 18.2226408921347307   T   T   T
  1.4139723682025220 11.6887500000000006 15.4346479215525285   T   T   T
  5.2411811748918034 11.6887499999999989 15.4346479215525285   T   T   T
  1.6878915095275724 14.2862500000000008 18.2226408921347236   T   T   T
  2.6909851657425206 13.4186849999999982 21.9399648529109896   T   T   T
  3.8754150541972652 10.8211849999999998 21.0106338627169258   T   T   T
  0.0482062475079804 12.5563149999999997 21.0106338627169258   T   T   T
  6.2442748311067540 10.8211849999999998 19.1519718823287910   T   T   T
  1.2326361359627251 15.1538149999999998 20.0813028725228584   T   T   T
  5.0598449426520107 13.4186850000000000 20.0813028725228584   T   T   T
  6.5181939724318001 15.1538149999999998 21.9399648529109896   T   T   T
  2.4170660244174700 12.5563149999999997 19.1519718823287910   T   T   T
  0.7773807623978797 14.2862499999999990 21.9399648529109896   T   T   T
  4.3306704277621089 11.6887499999999989 19.1519718823287910   T   T   T
  0.5034616210728293 11.6887499999999989 19.1519718823287910   T   T   T
  4.6045895690871594 14.2862499999999990 21.9399648529109896   T   T   T
  9.2497262138208818  3.0286849999999994 10.7879929705821986   F   F   F
 10.4341561022756260  0.4311850000000001  9.8586619803881312   F   F   F
 14.2613649089649073  2.1663150000000004  9.8586619803881312   F   F   F
 12.8030158791851143  0.4311850000000003  8.0000000000000000   F   F   F
  7.7913771840410888  4.7638150000000001  8.9293309901940674   F   F   F
 11.6185859907303701  3.0286849999999998  8.9293309901940674   F   F   F
 13.0769350205101631  4.7638150000000001 10.7879929705821986   F   F   F
  8.9758070724958330  2.1663150000000004  7.9999999999999991   F   F   F
 14.9905394238548055  3.8962500000000002 10.7879929705821986   F   F   F
 10.8894114758404719  1.2987500000000001  7.9999999999999991   F   F   F
 14.7166202825297550  1.2987500000000001  8.0000000000000000   F   F   F
 11.1633306171655242  3.8962500000000002 10.7879929705821986   F   F   F
 12.1664242733804695  3.0286849999999990 14.5053169313584611   F   F   F
 13.3508541618352137  0.4311849999999999 13.5759859411643937   F   F   F
  9.5236453551459324  2.1663150000000000 13.5759859411643937   F   F   F
  8.0652963253661376  0.4311850000000000 11.7173239607762625   F   F   F
 10.7080752436006765  4.7638150000000001 12.6466549509703299   F   F   F
 14.5352840502899578  3.0286849999999994 12.6466549509703299   F   F   F
  8.3392154666911882  4.7638150000000001 14.5053169313584611   F   F   F
 11.8925051320554207  2.1663150000000000 11.7173239607762660   F   F   F
 10.2528198700358306  3.8962499999999998 14.5053169313584647   F   F   F
 13.8061095354000614  1.2987499999999998 11.7173239607762625   F   F   F
  9.9789007287107783  1.2987499999999998 11.7173239607762660   F   F   F
 14.0800286767251102  3.8962499999999998 14.5053169313584611   F   F   F
 15.0831223329400608  3.0286849999999990 18.2226408921347272   T   T   T
  8.6131346080162405  0.4311849999999995 17.2933099019406598   T   T   T
 12.4403434147055219  2.1663150000000000 17.2933099019406598   T   T   T
 10.9819943849257271  0.4311849999999997 15.4346479215525250   T   T   T
 13.6247733031602642  4.7638149999999992 16.3639789117465924   T   T   T
  9.7975644964709829  3.0286849999999994 16.3639789117465924   T   T   T
 11.2559135262507795  4.7638149999999992 18.2226408921347236   T   T   T
 14.8092031916150084  2.1663150000000000 15.4346479215525285   T   T   T
 13.1695179295954219  3.8962499999999998 18.2226408921347307   T   T   T
  9.0683899815810847  1.2987499999999994 15.4346479215525285   T   T   T
 12.8955987882703660  1.2987499999999992 15.4346479215525285   T   T   T
  9.3423091229061352  3.8962499999999998 18.2226408921347236   T   T   T
 10.3454027791210841  3.0286849999999981 21.9399648529109896   T   T   T
 11.5298326675758283  0.4311849999999992 21.0106338627169258   T   T   T
  7.7026238608865434  2.1663149999999995 21.0106338627169258   T   T   T
 13.8986924444853166  0.4311849999999993 19.1519718823287910   T   T   T
  8.8870537493412893  4.7638149999999992 20.0813028725228584   T   T   T
 12.7142625560305742  3.0286849999999990 20.0813028725228584   T   T   T
 14.1726115858103636  4.7638149999999992 21.9399648529109896   T   T   T
 10.0714836377960335  2.1663149999999995 19.1519718823287910   T   T   T
  8.4317983757764434  3.8962499999999989 21.9399648529109896   T   T   T
 11.9850880411406724  1.2987499999999990 19.1519718823287910   T   T   T
  8.1578792344513928  1.2987499999999990 19.1519718823287910   T   T   T
 12.2590071824657230  3.8962499999999989 21.9399648529109896   T   T   T
  9.2497262138208818  8.2236849999999997 10.7879929705821986   F   F   F
 10.4341561022756260  5.6261850000000004  9.8586619803881312   F   F   F
 14.2613649089649073  7.3613150000000012  9.8586619803881312   F   F   F
 12.8030158791851143  5.6261850000000004  8.0000000000000000   F   F   F
  7.7913771840410888  9.9588150000000013  8.9293309901940674   F   F   F
 11.6185859907303701  8.2236849999999997  8.9293309901940674   F   F   F
 13.0769350205101631  9.9588150000000013 10.7879929705821986   F   F   F
  8.9758070724958330  7.3613150000000012  7.9999999999999991   F   F   F
 14.9905394238548055  9.0912500000000005 10.7879929705821986   F   F   F
 10.8894114758404719  6.4937500000000004  7.9999999999999991   F   F   F
 14.7166202825297550  6.4937500000000004  8.0000000000000000   F   F   F
 11.1633306171655242  9.0912500000000005 10.7879929705821986   F   F   F
 12.1664242733804695  8.2236849999999997 14.5053169313584611   F   F   F
 13.3508541618352137  5.6261850000000004 13.5759859411643937   F   F   F
  9.5236453551459324  7.3613150000000003 13.5759859411643937   F   F   F
  8.0652963253661376  5.6261850000000004 11.7173239607762625   F   F   F
 10.7080752436006765  9.9588150000000013 12.6466549509703299   F   F   F
 14.5352840502899578  8.2236849999999997 12.6466549509703299   F   F   F
  8.3392154666911882  9.9588150000000013 14.5053169313584611   F   F   F
 11.8925051320554207  7.3613150000000003 11.7173239607762660   F   F   F
 10.2528198700358306  9.0912500000000005 14.5053169313584647   F   F   F
 13.8061095354000614  6.4937500000000004 11.7173239607762625   F   F   F
  9.9789007287107783  6.4937500000000004 11.7173239607762660   F   F   F
 14.0800286767251102  9.0912500000000005 14.5053169313584611   F   F   F
 15.0831223329400608  8.2236849999999997 18.2226408921347272   T   T   T
  8.6131346080162405  5.6261849999999995 17.2933099019406598   T   T   T
 12.4403434147055219  7.3613150000000003 17.2933099019406598   T   T   T
 10.9819943849257271  5.6261849999999995 15.4346479215525250   T   T   T
 13.6247733031602642  9.9588149999999995 16.3639789117465924   T   T   T
  9.7975644964709829  8.2236849999999997 16.3639789117465924   T   T   T
 11.2559135262507795  9.9588149999999995 18.2226408921347236   T   T   T
 14.8092031916150084  7.3613150000000003 15.4346479215525285   T   T   T
 13.1695179295954219  9.0912500000000005 18.2226408921347307   T   T   T
  9.0683899815810847  6.4937499999999995 15.4346479215525285   T   T   T
 12.8955987882703660  6.4937499999999995 15.4346479215525285   T   T   T
  9.3423091229061352  9.0912500000000005 18.2226408921347236   T   T   T
 10.3454027791210841  8.2236849999999979 21.9399648529109896   T   T   T
 11.5298326675758283  5.6261849999999995 21.0106338627169258   T   T   T
  7.7026238608865434  7.3613149999999994 21.0106338627169258   T   T   T
 13.8986924444853166  5.6261849999999995 19.1519718823287910   T   T   T
  8.8870537493412893  9.9588149999999995 20.0813028725228584   T   T   T
 12.7142625560305742  8.2236849999999997 20.0813028725228584   T   T   T
 14.1726115858103636  9.9588149999999995 21.9399648529109896   T   T   T
 10.0714836377960335  7.3613149999999994 19.1519718823287910   T   T   T
  8.4317983757764434  9.0912499999999987 21.9399648529109896   T   T   T
 11.9850880411406724  6.4937499999999995 19.1519718823287910   T   T   T
  8.1578792344513928  6.4937499999999995 19.1519718823287910   T   T   T
 12.2590071824657230  9.0912499999999987 21.9399648529109896   T   T   T
  9.2497262138208818 13.4186850000000000 10.7879929705821986   F   F   F
 10.4341561022756260 10.8211849999999998  9.8586619803881312   F   F   F
 14.2613649089649073 12.5563150000000014  9.8586619803881312   F   F   F
 12.8030158791851143 10.8211850000000016  8.0000000000000000   F   F   F
  7.7913771840410888 15.1538150000000016  8.9293309901940674   F   F   F
 11.6185859907303701 13.4186850000000000  8.9293309901940674   F   F   F
 13.0769350205101631 15.1538150000000016 10.7879929705821986   F   F   F
  8.9758070724958330 12.5563150000000014  7.9999999999999991   F   F   F
 14.9905394238548055 14.2862500000000008 10.7879929705821986   F   F   F
 10.8894114758404719 11.6887500000000006  7.9999999999999991   F   F   F
 14.7166202825297550 11.6887500000000006  8.0000000000000000   F   F   F
 11.1633306171655242 14.2862500000000008 10.7879929705821986   F   F   F
 12.1664242733804695 13.4186850000000000 14.5053169313584611   F   F   F
 13.3508541618352137 10.8211849999999998 13.5759859411643937   F   F   F
  9.5236453551459324 12.5563150000000014 13.5759859411643937   F   F   F
  8.0652963253661376 10.8211849999999998 11.7173239607762625   F   F   F
 10.7080752436006765 15.1538150000000016 12.6466549509703299   F   F   F
 14.5352840502899578 13.4186850000000000 12.6466549509703299   F   F   F
  8.3392154666911882 15.1538150000000016 14.5053169313584611   F   F   F
 11.8925051320554207 12.5563150000000014 11.7173239607762660   F   F   F
 10.2528198700358306 14.2862500000000008 14.5053169313584647   F   F   F
 13.8061095354000614 11.6887500000000006 11.7173239607762625   F   F   F
  9.9789007287107783 11.6887500000000006 11.7173239607762660   F   F   F
 14.0800286767251102 14.2862500000000008 14.5053169313584611   F   F   F
 15.0831223329400608 13.4186850000000000 18.2226408921347272   T   T   T
  8.6131346080162405 10.8211849999999998 17.2933099019406598   T   T   T
 12.4403434147055219 12.5563150000000014 17.2933099019406598   T   T   T
 10.9819943849257271 10.8211849999999998 15.4346479215525250   T   T   T
 13.6247733031602642 15.1538149999999998 16.3639789117465924   T   T   T
  9.7975644964709829 13.4186850000000000 16.3639789117465924   T   T   T
 11.2559135262507795 15.1538149999999998 18.2226408921347236   T   T   T
 14.8092031916150084 12.5563150000000014 15.4346479215525285   T   T   T
 13.1695179295954219 14.2862500000000008 18.2226408921347307   T   T   T
  9.0683899815810847 11.6887500000000006 15.4346479215525285   T   T   T
 12.8955987882703660 11.6887499999999989 15.4346479215525285   T   T   T
  9.3423091229061352 14.2862500000000008 18.2226408921347236   T   T   T
 10.3454027791210841 13.4186849999999982 21.9399648529109896   T   T   T
 11.5298326675758283 10.8211849999999998 21.0106338627169258   T   T   T
  7.7026238608865434 12.5563149999999997 21.0106338627169258   T   T   T
 13.8986924444853166 10.8211849999999998 19.1519718823287910   T   T   T
  8.8870537493412893 15.1538149999999998 20.0813028725228584   T   T   T
 12.7142625560305742 13.4186850000000000 20.0813028725228584   T   T   T
 14.1726115858103636 15.1538149999999998 21.9399648529109896   T   T   T
 10.0714836377960335 12.5563149999999997 19.1519718823287910   T   T   T
  8.4317983757764434 14.2862499999999990 21.9399648529109896   T   T   T
 11.9850880411406724 11.6887499999999989 19.1519718823287910   T   T   T
  8.1578792344513928 11.6887499999999989 19.1519718823287910   T   T   T
 12.2590071824657230 14.2862499999999990 21.9399648529109896   T   T   T
 16.9041438271994444  3.0286849999999994 10.7879929705821986   F   F   F
 18.0885737156541886  0.4311850000000001  9.8586619803881312   F   F   F
 21.9157825223434699  2.1663150000000004  9.8586619803881312   F   F   F
 20.4574334925636769  0.4311850000000003  8.0000000000000000   F   F   F
 15.4457947974196514  4.7638150000000001  8.9293309901940674   F   F   F
 19.2730036041089328  3.0286849999999998  8.9293309901940674   F   F   F
 20.7313526338887257  4.7638150000000001 10.7879929705821986   F   F   F
 16.6302246858743956  2.1663150000000004  7.9999999999999991   F   F   F
 22.6449570372333682  3.8962500000000002 10.7879929705821986   F   F   F
 18.5438290892190381  1.2987500000000001  7.9999999999999991   F   F   F
 22.3710378959083194  1.2987500000000001  8.0000000000000000   F   F   F
 18.8177482305440869  3.8962500000000002 10.7879929705821986   F   F   F
 19.8208418867590339  3.0286849999999990 14.5053169313584611   F   F   F
 21.0052717752137781  0.4311849999999999 13.5759859411643937   F   F   F
 17.1780629685244968  2.1663150000000000 13.5759859411643937   F   F   F
 15.7197139387447002  0.4311850000000000 11.7173239607762625   F   F   F
 18.3624928569792409  4.7638150000000001 12.6466549509703299   F   F   F
 22.1897016636685223  3.0286849999999994 12.6466549509703299   F   F   F
 15.9936330800697508  4.7638150000000001 14.5053169313584611   F   F   F
 19.5469227454339851  2.1663150000000000 11.7173239607762660   F   F   F
 17.9072374834143950  3.8962499999999998 14.5053169313584647   F   F   F
 21.4605271487786240  1.2987499999999998 11.7173239607762625   F   F   F
 17.6333183420893427  1.2987499999999998 11.7173239607762660   F   F   F
 21.7344462901036763  3.8962499999999998 14.5053169313584611   F   F   F
 22.7375399463186234  3.0286849999999990 18.2226408921347272   T   T   T
 16.2675522213948049  0.4311849999999995 17.2933099019406598   T   T   T
 20.0947610280840863  2.1663150000000000 17.2933099019406598   T   T   T
 18.6364119983042897  0.4311849999999997 15.4346479215525250   T   T   T
 21.2791909165388304  4.7638149999999992 16.3639789117465924   T   T   T
 17.4519821098495456  3.0286849999999994 16.3639789117465924   T   T   T
 18.9103311396293421  4.7638149999999992 18.2226408921347236   T   T   T
 22.4636208049935746  2.1663150000000000 15.4346479215525285   T   T   T
 20.8239355429739845  3.8962499999999998 18.2226408921347307   T   T   T
 16.7228075949596473  1.2987499999999994 15.4346479215525285   T   T   T
 20.5500164016489322  1.2987499999999992 15.4346479215525285   T   T   T
 16.9967267362846997  3.8962499999999998 18.2226408921347236   T   T   T
 17.9998203924996467  3.0286849999999981 21.9399648529109896   T   T   T
 19.1842502809543909  0.4311849999999992 21.0106338627169258   T   T   T
 15.3570414742651078  2.1663149999999995 21.0106338627169258   T   T   T
 21.5531100578638828  0.4311849999999993 19.1519718823287910   T   T   T
 16.5414713627198537  4.7638149999999992 20.0813028725228584   T   T   T
 20.3686801694091386  3.0286849999999990 20.0813028725228584   T   T   T
 21.8270291991889280  4.7638149999999992 21.9399648529109896   T   T   T
 17.7259012511745979  2.1663149999999995 19.1519718823287910   T   T   T
 16.0862159891550078  3.8962499999999989 21.9399648529109896   T   T   T
 19.6395056545192368  1.2987499999999990 19.1519718823287910   T   T   T
 15.8122968478299555  1.2987499999999990 19.1519718823287910   T   T   T
 19.9134247958442856  3.8962499999999989 21.9399648529109896   T   T   T
 16.9041438271994444  8.2236849999999997 10.7879929705821986   F   F   F
 18.0885737156541886  5.6261850000000004  9.8586619803881312   F   F   F
 21.9157825223434699  7.3613150000000012  9.8586619803881312   F   F   F
 20.4574334925636769  5.6261850000000004  8.0000000000000000   F   F   F
 15.4457947974196514  9.9588150000000013  8.9293309901940674   F   F   F
 19.2730036041089328  8.2236849999999997  8.9293309901940674   F   F   F
 20.7313526338887257  9.9588150000000013 10.7879929705821986   F   F   F
 16.6302246858743956  7.3613150000000012  7.9999999999999991   F   F   F
 22.6449570372333682  9.0912500000000005 10.7879929705821986   F   F   F
 18.5438290892190381  6.4937500000000004  7.9999999999999991   F   F   F
 22.3710378959083194  6.4937500000000004  8.0000000000000000   F   F   F
 18.8177482305440869  9.0912500000000005 10.7879929705821986   F   F   F
 19.8208418867590339  8.2236849999999997 14.5053169313584611   F   F   F
 21.0052717752137781  5.6261850000000004 13.5759859411643937   F   F   F
 17.1780629685244968  7.3613150000000003 13.5759859411643937   F   F   F
 15.7197139387447002  5.6261850000000004 11.7173239607762625   F   F   F
 18.3624928569792409  9.9588150000000013 12.6466549509703299   F   F   F
 22.1897016636685223  8.2236849999999997 12.6466549509703299   F   F   F
 15.9936330800697508  9.9588150000000013 14.5053169313584611   F   F   F
 19.5469227454339851  7.3613150000000003 11.7173239607762660   F   F   F
 17.9072374834143950  9.0912500000000005 14.5053169313584647   F   F   F
 21.4605271487786240  6.4937500000000004 11.7173239607762625   F   F   F
 17.6333183420893427  6.4937500000000004 11.7173239607762660   F   F   F
 21.7344462901036763  9.0912500000000005 14.5053169313584611   F   F   F
 22.7375399463186234  8.2236849999999997 18.2226408921347272   T   T   T
 16.2675522213948049  5.6261849999999995 17.2933099019406598   T   T   T
 20.0947610280840863  7.3613150000000003 17.2933099019406598   T   T   T
 18.6364119983042897  5.6261849999999995 15.4346479215525250   T   T   T
 21.2791909165388304  9.9588149999999995 16.3639789117465924   T   T   T
 17.4519821098495456  8.2236849999999997 16.3639789117465924   T   T   T
 18.9103311396293421  9.9588149999999995 18.2226408921347236   T   T   T
 22.4636208049935746  7.3613150000000003 15.4346479215525285   T   T   T
 20.8239355429739845  9.0912500000000005 18.2226408921347307   T   T   T
 16.7228075949596473  6.4937499999999995 15.4346479215525285   T   T   T
 20.5500164016489322  6.4937499999999995 15.4346479215525285   T   T   T
 16.9967267362846997  9.0912500000000005 18.2226408921347236   T   T   T
 17.9998203924996467  8.2236849999999979 21.9399648529109896   T   T   T
 19.1842502809543909  5.6261849999999995 21.0106338627169258   T   T   T
 15.3570414742651078  7.3613149999999994 21.0106338627169258   T   T   T
 21.5531100578638828  5.6261849999999995 19.1519718823287910   T   T   T
 16.5414713627198537  9.9588149999999995 20.0813028725228584   T   T   T
 20.3686801694091386  8.2236849999999997 20.0813028725228584   T   T   T
 21.8270291991889280  9.9588149999999995 21.9399648529109896   T   T   T
 17.7259012511745979  7.3613149999999994 19.1519718823287910   T   T   T
 16.0862159891550078  9.0912499999999987 21.9399648529109896   T   T   T
 19.6395056545192368  6.4937499999999995 19.1519718823287910   T   T   T
 15.8122968478299555  6.4937499999999995 19.1519718823287910   T   T   T
 19.9134247958442856  9.0912499999999987 21.9399648529109896   T   T   T
 16.9041438271994444 13.4186850000000000 10.7879929705821986   F   F   F
 18.0885737156541886 10.8211849999999998  9.8586619803881312   F   F   F
 21.9157825223434699 12.5563150000000014  9.8586619803881312   F   F   F
 20.4574334925636769 10.8211850000000016  8.0000000000000000   F   F   F
 15.4457947974196514 15.1538150000000016  8.9293309901940674   F   F   F
 19.2730036041089328 13.4186850000000000  8.9293309901940674   F   F   F
 20.7313526338887257 15.1538150000000016 10.7879929705821986   F   F   F
 16.6302246858743956 12.5563150000000014  7.9999999999999991   F   F   F
 22.6449570372333682 14.2862500000000008 10.7879929705821986   F   F   F
 18.5438290892190381 11.6887500000000006  7.9999999999999991   F   F   F
 22.3710378959083194 11.6887500000000006  8.0000000000000000   F   F   F
 18.8177482305440869 14.2862500000000008 10.7879929705821986   F   F   F
 19.8208418867590339 13.4186850000000000 14.5053169313584611   F   F   F
 21.0052717752137781 10.8211849999999998 13.5759859411643937   F   F   F
 17.1780629685244968 12.5563150000000014 13.5759859411643937   F   F   F
 15.7197139387447002 10.8211849999999998 11.7173239607762625   F   F   F
 18.3624928569792409 15.1538150000000016 12.6466549509703299   F   F   F
 22.1897016636685223 13.4186850000000000 12.6466549509703299   F   F   F
 15.9936330800697508 15.1538150000000016 14.5053169313584611   F   F   F
 19.5469227454339851 12.5563150000000014 11.7173239607762660   F   F   F
 17.9072374834143950 14.2862500000000008 14.5053169313584647   F   F   F
 21.4605271487786240 11.6887500000000006 11.7173239607762625   F   F   F
 17.6333183420893427 11.6887500000000006 11.7173239607762660   F   F   F
 21.7344462901036763 14.2862500000000008 14.5053169313584611   F   F   F
 22.7375399463186234 13.4186850000000000 18.2226408921347272   T   T   T
 16.2675522213948049 10.8211849999999998 17.2933099019406598   T   T   T
 20.0947610280840863 12.5563150000000014 17.2933099019406598   T   T   T
 18.6364119983042897 10.8211849999999998 15.4346479215525250   T   T   T
 21.2791909165388304 15.1538149999999998 16.3639789117465924   T   T   T
 17.4519821098495456 13.4186850000000000 16.3639789117465924   T   T   T
 18.9103311396293421 15.1538149999999998 18.2226408921347236   T   T   T
 22.4636208049935746 12.5563150000000014 15.4346479215525285   T   T   T
 20.8239355429739845 14.2862500000000008 18.2226408921347307   T   T   T
 16.7228075949596473 11.6887500000000006 15.4346479215525285   T   T   T
 20.5500164016489322 11.6887499999999989 15.4346479215525285   T   T   T
 16.9967267362846997 14.2862500000000008 18.2226408921347236   T   T   T
 17.9998203924996467 13.4186849999999982 21.9399648529109896   T   T   T
 19.1842502809543909 10.8211849999999998 21.0106338627169258   T   T   T
 15.3570414742651078 12.5563149999999997 21.0106338627169258   T   T   T
 21.5531100578638828 10.8211849999999998 19.1519718823287910   T   T   T
 16.5414713627198537 15.1538149999999998 20.0813028725228584   T   T   T
 20.3686801694091386 13.4186850000000000 20.0813028725228584   T   T   T
 21.8270291991889280 15.1538149999999998 21.9399648529109896   T   T   T
 17.7259012511745979 12.5563149999999997 19.1519718823287910   T   T   T
 16.0862159891550078 14.2862499999999990 21.9399648529109896   T   T   T
 19.6395056545192368 11.6887499999999989 19.1519718823287910   T   T   T
 15.8122968478299555 11.6887499999999989 19.1519718823287910   T   T   T
 19.9134247958442856 14.2862499999999990 21.9399648529109896   T   T   T
