Ni Mo S  Ru
 1.0000000000000000
    12.4450793488832367    0.0000000000000000    0.0000000000000008
     4.9780317395532938   21.5555097364919703    0.0000000000000014
     0.0000000000000000    0.0000000000000000   19.2288876183290220
 Ni  Mo  S   Ru 
 200  16  32   4
Selective dynamics
Cartesian
 16.1786031535482095 22.2740267277083674  5.2721769986598526   F   F   F
 13.6895872837715622 22.2740267277083674  5.2721769986598579   F   F   F
 14.9340952186598876 20.1184757540591725  5.2721769986598561   F   F   F
 11.2005714139949131 22.2740267277083674  5.2721769986598561   F   F   F
 12.4450793488832367 20.1184757540591690  5.2721769986598561   F   F   F
 13.6895872837715622 17.9629247804099741  5.2721769986598543   F   F   F
 14.9340952186598876 15.8073738067607739  5.2721769986598552   F   F   F
  8.7115555442182675 22.2740267277083710  5.2721769986598561   F   F   F
  9.9560634791065930 20.1184757540591725  5.2721769986598561   F   F   F
 11.2005714139949148 17.9629247804099776  5.2721769986598552   F   F   F
 12.4450793488832367 15.8073738067607792  5.2721769986598552   F   F   F
 13.6895872837715622 13.6518228331115790  5.2721769986598543   F   F   F
  6.2225396744416184 22.2740267277083674  5.2721769986598552   F   F   F
  7.4670476093299403 20.1184757540591690  5.2721769986598552   F   F   F
  8.7115555442182639 17.9629247804099741  5.2721769986598517   F   F   F
  9.9560634791065894 15.8073738067607774  5.2721769986598526   F   F   F
 11.2005714139949148 13.6518228331115807  5.2721769986598543   F   F   F
 12.4450793488832367 11.4962718594623841  5.2721769986598517   F   F   F
 13.6895872837715658  9.3407208858131856  5.2721769986598517   F   F   F
  4.9780317395532938 20.1184757540591725  5.2721769986598552   F   F   F
  6.2225396744416193 17.9629247804099741  5.2721769986598517   F   F   F
  7.4670476093299420 15.8073738067607774  5.2721769986598535   F   F   F
  8.7115555442182657 13.6518228331115790  5.2721769986598543   F   F   F
  9.9560634791065912 11.4962718594623858  5.2721769986598535   F   F   F
 11.2005714139949148  9.3407208858131856  5.2721769986598517   F   F   F
 12.4450793488832385  7.1851699121639898  5.2721769986598535   F   F   F
  3.7335238046649710 17.9629247804099741  5.2721769986598535   F   F   F
  4.9780317395532938 15.8073738067607774  5.2721769986598543   F   F   F
  6.2225396744416184 13.6518228331115807  5.2721769986598543   F   F   F
  7.4670476093299420 11.4962718594623841  5.2721769986598543   F   F   F
  8.7115555442182675  9.3407208858131856  5.2721769986598543   F   F   F
  9.9560634791065894  7.1851699121639889  5.2721769986598543   F   F   F
 11.2005714139949148  5.0296189385147922  5.2721769986598517   F   F   F
  3.7335238046649706 13.6518228331115790  5.2721769986598543   F   F   F
  4.9780317395532956 11.4962718594623841  5.2721769986598552   F   F   F
  6.2225396744416201  9.3407208858131874  5.2721769986598543   F   F   F
  7.4670476093299438  7.1851699121639907  5.2721769986598543   F   F   F
  8.7115555442182693  5.0296189385147922  5.2721769986598543   F   F   F
  9.9560634791065912  2.8740679648655956  5.2721769986598543   F   F   F
  2.4890158697766469 11.4962718594623841  5.2721769986598543   F   F   F
  3.7335238046649719  9.3407208858131874  5.2721769986598543   F   F   F
  4.9780317395532965  7.1851699121639907  5.2721769986598543   F   F   F
  6.2225396744416201  5.0296189385147922  5.2721769986598535   F   F   F
  7.4670476093299438  2.8740679648655960  5.2721769986598543   F   F   F
  2.4890158697766473  7.1851699121639889  5.2721769986598543   F   F   F
  3.7335238046649719  5.0296189385147931  5.2721769986598543   F   F   F
  4.9780317395532947  2.8740679648655960  5.2721769986598552   F   F   F
  1.2445079348883248  5.0296189385147931  5.2721769986598535   F   F   F
  2.4890158697766482  2.8740679648655960  5.2721769986598535   F   F   F
  0.0000000000000001  2.8740679648655960  5.2721769986598535   F   F   F
 16.1786031535482095 23.7110607101411652  7.3044499462073373   F   F   F
 13.6895872837715640 23.7110607101411652  7.3044499462073409   F   F   F
 14.9340952186598859 21.5555097364919668  7.3044499462073391   F   F   F
 11.2005714139949148 23.7110607101411688  7.3044499462073391   F   F   F
 12.4450793488832403 21.5555097364919703  7.3044499462073391   F   F   F
 13.6895872837715622 19.3999587628427754  7.3044499462073382   F   F   F
 14.9340952186598876 17.2444077891935770  7.3044499462073373   F   F   F
  8.7115555442182657 23.7110607101411652  7.3044499462073382   F   F   F
  9.9560634791065876 21.5555097364919668  7.3044499462073382   F   F   F
 11.2005714139949113 19.3999587628427719  7.3044499462073373   F   F   F
 12.4450793488832367 17.2444077891935734  7.3044499462073373   F   F   F
 13.6895872837715658 15.0888568155443785  7.3044499462073382   F   F   F
  6.2225396744416175 23.7110607101411652  7.3044499462073382   F   F   F
  7.4670476093299447 21.5555097364919703  7.3044499462073382   F   F   F
  8.7115555442182675 19.3999587628427754  7.3044499462073382   F   F   F
  9.9560634791065912 17.2444077891935770  7.3044499462073373   F   F   F
 11.2005714139949148 15.0888568155443785  7.3044499462073382   F   F   F
 12.4450793488832403 12.9333058418951836  7.3044499462073373   F   F   F
 13.6895872837715622 10.7777548682459834  7.3044499462073365   F   F   F
  4.9780317395532938 21.5555097364919703  7.3044499462073382   F   F   F
  6.2225396744416193 19.3999587628427719  7.3044499462073365   F   F   F
  7.4670476093299403 17.2444077891935734  7.3044499462073329   F   F   F
  8.7115555442182675 15.0888568155443785  7.3044499462073365   F   F   F
  9.9560634791065930 12.9333058418951836  7.3044499462073382   F   F   F
 11.2005714139949113 10.7777548682459834  7.3044499462073329   F   F   F
 12.4450793488832403  8.6222038945967885  7.3044499462073373   F   F   F
  3.7335238046649710 19.3999587628427754  7.3044499462073373   F   F   F
  4.9780317395532965 17.2444077891935770  7.3044499462073373   F   F   F
  6.2225396744416201 15.0888568155443785  7.3044499462073382   F   F   F
  7.4670476093299438 12.9333058418951818  7.3044499462073382   F   F   F
  8.7115555442182675 10.7777548682459834  7.3044499462073373   F   F   F
  9.9560634791065912  8.6222038945967885  7.3044499462073373   F   F   F
 11.2005714139949148  6.4666529209475909  7.3044499462073365   F   F   F
  3.7335238046649719 15.0888568155443785  7.3044499462073373   F   F   F
  4.9780317395532947 12.9333058418951818  7.3044499462073373   F   F   F
  6.2225396744416184 10.7777548682459852  7.3044499462073373   F   F   F
  7.4670476093299429  8.6222038945967885  7.3044499462073365   F   F   F
  8.7115555442182657  6.4666529209475909  7.3044499462073365   F   F   F
  9.9560634791065912  4.3111019472983934  7.3044499462073365   F   F   F
  2.4890158697766473 12.9333058418951818  7.3044499462073365   F   F   F
  3.7335238046649701 10.7777548682459852  7.3044499462073365   F   F   F
  4.9780317395532965  8.6222038945967885  7.3044499462073382   F   F   F
  6.2225396744416201  6.4666529209475918  7.3044499462073373   F   F   F
  7.4670476093299447  4.3111019472983942  7.3044499462073373   F   F   F
  2.4890158697766482  8.6222038945967885  7.3044499462073373   F   F   F
  3.7335238046649719  6.4666529209475918  7.3044499462073373   F   F   F
  4.9780317395532956  4.3111019472983934  7.3044499462073373   F   F   F
  1.2445079348883232  6.4666529209475909  7.3044499462073365   F   F   F
  2.4890158697766487  4.3111019472983942  7.3044499462073365   F   F   F
  0.0000000000000003  4.3111019472983942  7.3044499462073365   F   F   F
 16.1786031535482095 25.1480946925739630  9.3367228937548212   T   T   T
 13.6895872837715604 25.1480946925739630  9.3367228937548212   T   T   T
 14.9340952186598841 22.9925437189247681  9.3367228937548212   T   T   T
 11.2005714139949113 25.1480946925739630  9.3367228937548212   T   T   T
 12.4450793488832350 22.9925437189247681  9.3367228937548212   T   T   T
 13.6895872837715586 20.8369927452755697  9.3367228937548159   T   T   T
 14.9340952186598876 18.6814417716263712  9.3367228937548212   T   T   T
  8.7115555442182711 25.1480946925739666  9.3367228937548230   T   T   T
  9.9560634791065912 22.9925437189247681  9.3367228937548230   T   T   T
 11.2005714139949148 20.8369927452755732  9.3367228937548212   T   T   T
 12.4450793488832403 18.6814417716263748  9.3367228937548212   T   T   T
 13.6895872837715640 16.5258907979771763  9.3367228937548212   T   T   T
  6.2225396744416175 25.1480946925739630  9.3367228937548212   T   T   T
  7.4670476093299403 22.9925437189247681  9.3367228937548212   T   T   T
  8.7115555442182657 20.8369927452755697  9.3367228937548212   T   T   T
  9.9560634791065876 18.6814417716263712  9.3367228937548212   T   T   T
 11.2005714139949148 16.5258907979771763  9.3367228937548212   T   T   T
 12.4450793488832367 14.3703398243279796  9.3367228937548212   T   T   T
 13.6895872837715640 12.2147888506787829  9.3367228937548212   T   T   T
  4.9780317395532938 22.9925437189247681  9.3367228937548212   T   T   T
  6.2225396744416193 20.8369927452755697  9.3367228937548212   T   T   T
  7.4670476093299438 18.6814417716263748  9.3367228937548212   T   T   T
  8.7115555442182675 16.5258907979771763  9.3367228937548212   T   T   T
  9.9560634791065930 14.3703398243279814  9.3367228937548212   T   T   T
 11.2005714139949148 12.2147888506787829  9.3367228937548212   T   T   T
 12.4450793488832403 10.0592378770295845  9.3367228937548195   T   T   T
  3.7335238046649701 20.8369927452755697  9.3367228937548195   T   T   T
  4.9780317395532947 18.6814417716263748  9.3367228937548159   T   T   T
  6.2225396744416184 16.5258907979771763  9.3367228937548212   T   T   T
  7.4670476093299420 14.3703398243279796  9.3367228937548212   T   T   T
  8.7115555442182657 12.2147888506787812  9.3367228937548212   T   T   T
  9.9560634791065912 10.0592378770295845  9.3367228937548195   T   T   T
 11.2005714139949148  7.9036869033803860  9.3367228937548195   T   T   T
  3.7335238046649706 16.5258907979771763  9.3367228937548212   T   T   T
  4.9780317395532947 14.3703398243279779  9.3367228937548212   T   T   T
  6.2225396744416184 12.2147888506787812  9.3367228937548212   T   T   T
  7.4670476093299438 10.0592378770295863  9.3367228937548212   T   T   T
  8.7115555442182675  7.9036869033803896  9.3367228937548212   T   T   T
  9.9560634791065894  5.7481359297311920  9.3367228937548212   T   T   T
  2.4890158697766473 14.3703398243279814  9.3367228937548195   T   T   T
  3.7335238046649715 12.2147888506787829  9.3367228937548195   T   T   T
  4.9780317395532947 10.0592378770295880  9.3367228937548195   T   T   T
  6.2225396744416184  7.9036869033803896  9.3367228937548195   T   T   T
  7.4670476093299429  5.7481359297311920  9.3367228937548195   T   T   T
  2.4890158697766496 10.0592378770295863  9.3367228937548195   T   T   T
  3.7335238046649728  7.9036869033803896  9.3367228937548195   T   T   T
  4.9780317395532965  5.7481359297311920  9.3367228937548195   T   T   T
  1.2445079348883255  7.9036869033803896  9.3367228937548195   T   T   T
  2.4890158697766482  5.7481359297311920  9.3367228937548195   T   T   T
  0.0000000000000002  5.7481359297311920  9.3367228937548195   T   T   T
 16.1786031535482095 26.5851286750067608 11.3689958413023025   T   T   T
 13.6895872837715658 26.5851286750067608 11.3689958413023025   T   T   T
 14.9340952186598841 24.4295777013575623 11.3689958413023025   T   T   T
 11.2005714139949131 26.5851286750067644 11.3689958413023042   T   T   T
 12.4450793488832367 24.4295777013575659 11.3689958413023042   T   T   T
 13.6895872837715640 22.2740267277083710 11.3689958413023025   T   T   T
 14.9340952186598859 20.1184757540591725 11.3689958413023025   T   T   T
  8.7115555442182675 26.5851286750067608 11.3689958413023078   T   T   T
  9.9560634791065912 24.4295777013575659 11.3689958413023078   T   T   T
 11.2005714139949148 22.2740267277083674 11.3689958413023078   T   T   T
 12.4450793488832367 20.1184757540591725 11.3689958413023078   T   T   T
 13.6895872837715622 17.9629247804099741 11.3689958413023078   T   T   T
  6.2225396744416184 26.5851286750067644 11.3689958413023042   T   T   T
  7.4670476093299429 24.4295777013575695 11.3689958413023078   T   T   T
  8.7115555442182675 22.2740267277083710 11.3689958413023078   T   T   T
  9.9560634791065930 20.1184757540591725 11.3689958413023042   T   T   T
 11.2005714139949148 17.9629247804099705 11.3689958413023007   T   T   T
 12.4450793488832367 15.8073738067607774 11.3689958413023007   T   T   T
 13.6895872837715622 13.6518228331115825 11.3689958413023042   T   T   T
  4.9780317395532929 24.4295777013575659 11.3689958413023042   T   T   T
  6.2225396744416166 22.2740267277083710 11.3689958413023042   T   T   T
  7.4670476093299420 20.1184757540591725 11.3689958413023042   T   T   T
  8.7115555442182657 17.9629247804099776 11.3689958413023042   T   T   T
  9.9560634791065894 15.8073738067607774 11.3689958413023025   T   T   T
 11.2005714139949131 13.6518228331115807 11.3689958413023025   T   T   T
 12.4450793488832403 11.4962718594623841 11.3689958413023042   T   T   T
  3.7335238046649724 22.2740267277083710 11.3689958413023042   T   T   T
  4.9780317395532947 20.1184757540591761 11.3689958413023042   T   T   T
  6.2225396744416201 17.9629247804099776 11.3689958413023042   T   T   T
  7.4670476093299438 15.8073738067607774 11.3689958413023042   T   T   T
  8.7115555442182675 13.6518228331115790 11.3689958413023025   T   T   T
  9.9560634791065912 11.4962718594623841 11.3689958413023025   T   T   T
 11.2005714139949148  9.3407208858131874 11.3689958413023042   T   T   T
  3.7335238046649706 17.9629247804099776 11.3689958413023042   T   T   T
  4.9780317395532965 15.8073738067607792 11.3689958413023025   T   T   T
  6.2225396744416184 13.6518228331115790 11.3689958413023025   T   T   T
  7.4670476093299429 11.4962718594623841 11.3689958413023025   T   T   T
  8.7115555442182675  9.3407208858131856 11.3689958413023025   T   T   T
  9.9560634791065912  7.1851699121639898 11.3689958413023042   T   T   T
  2.4890158697766456 15.8073738067607774 11.3689958413023042   T   T   T
  3.7335238046649732 13.6518228331115825 11.3689958413023042   T   T   T
  4.9780317395532956 11.4962718594623858 11.3689958413023025   T   T   T
  6.2225396744416201  9.3407208858131856 11.3689958413023007   T   T   T
  7.4670476093299447  7.1851699121639925 11.3689958413023060   T   T   T
  2.4890158697766469 11.4962718594623841 11.3689958413023025   T   T   T
  3.7335238046649710  9.3407208858131874 11.3689958413023025   T   T   T
  4.9780317395532938  7.1851699121639907 11.3689958413023025   T   T   T
  1.2445079348883239  9.3407208858131892 11.3689958413023060   T   T   T
  2.4890158697766473  7.1851699121639925 11.3689958413023060   T   T   T
  0.0000000000000009  7.1851699121639907 11.3689958413023025   T   T   T
  4.6408100475336731  8.6806006859410001 15.1361090298039471   T   T   T
  5.8853179824219950 14.0694781200639927 15.1361090298039489   T   T   T
  7.1298259173103204 19.4583555541869870 15.1361090298039489   T   T   T
  8.3743338521986441 24.8472329883099832 15.1361090298039489   T   T   T
 10.8556769222756326  8.2096407806725846 15.9196656240547672   T   T   T
 12.1001848571639563 13.5985182147955737 15.9196656240547636   T   T   T
 13.3446927920522818 18.9873956489185751 15.9196656240547636   T   T   T
 14.5892007269406037 24.3762730830415713 15.9196656240547672   T   T   T
  5.0709916250631579 11.4188129738003106 13.5689958413023124   T   T   T
  6.3154995599514816 16.8076904079233067 13.5689958413023088   T   T   T
  7.5600074948398071 22.1965678420463064 13.5689958413023142   T   T   T
  8.8045154297281307 27.5854452761693025 13.5689958413023088   T   T   T
 11.2858584998051192 10.9478530685318987 14.3525524355531306   T   T   T
 12.5303664346934429 16.3367305026548948 14.3525524355531289   T   T   T
 13.7748743695817666 21.7256079367778874 14.3525524355531289   T   T   T
 15.0193823044700903 27.1144853709008800 14.3525524355531306   T   T   T
 12.7708800365613584  9.6639974552048251 15.7175080227380572   T   T   T
 14.0153879714496821 15.0528748893278195 15.7175080227380555   T   T   T
 15.2598959063380057 20.4417523234508103 15.7175080227380537   T   T   T
 16.5044038412263276 25.8306297575738029 15.7175080227380537   T   T   T
  6.5406675624200830  9.1930375499364114 16.5010646169888702   T   T   T
  7.7851754973084075 14.5819149840594058 16.5010646169888702   T   T   T
  9.0296834321967303 19.9707924181824019 16.5010646169888702   T   T   T
 10.2741913670850558 25.3596698523053981 16.5010646169888737   T   T   T
  2.7256069332479509  7.2262440114087596 15.3382666311206570   T   T   T
  3.9701148681362746 12.6151214455317522 15.3382666311206606   T   T   T
  5.2146228030245991 18.0039988796547483 15.3382666311206588   T   T   T
  6.4591307379129228 23.3928763137777480 15.3382666311206552   T   T   T
  8.5256378298597379  4.9589916288178637 16.1218232253714753   T   T   T
  9.7701457647480616 10.3478690629408554 16.1218232253714753   T   T   T
 11.0146536996363835 15.7367464970638462 16.1218232253714753   T   T   T
 12.2591616345247107 21.1256239311868512 16.1218232253714788   T   T   T
 13.2010616140908450 12.4022097430641409 14.1503948342364207   T   T   T
 14.4455695489791687 17.7910871771871371 14.1503948342364207   T   T   T
 15.6900774838674941 23.1799646113101296 14.1503948342364207   T   T   T
 16.9345854187558160 28.5688420454331222 14.1503948342364190   T   T   T
  6.9708491399495713 11.9312498377957255 14.9339514284872372   T   T   T
  8.2153570748378950 17.3201272719187180 14.9339514284872372   T   T   T
  9.4598650097262187 22.7090047060417177 14.9339514284872354   T   T   T
 10.7043729446145406 28.0978821401646996 14.9339514284872372   T   T   T
  3.1557885107774379  9.9644562992680719 13.7711534426190223   T   T   T
  4.4002964456657621 15.3533337333910680 13.7711534426190241   T   T   T
  5.6448043805540848 20.7422111675140570 13.7711534426190241   T   T   T
  6.8893123154424094 26.1310886016370567 13.7711534426190294   T   T   T
  8.9558194073892246  7.6972039166771742 14.5547100368698423   T   T   T
 10.2003273422775482 13.0860813508001677 14.5547100368698423   T   T   T
 11.4448352771658719 18.4749587849231602 14.5547100368698423   T   T   T
 12.6893432120541974 23.8638362190461599 14.5547100368698423   T   T   T
  7.4130798249121339 14.0544194800345466 18.3010646169888744   T   T   T
  7.4130798249121339 16.4544194800345451 18.3010646169888744   T   T   T
  9.8130798249121334 14.0544194800345466 18.3010646169888744   T   T   T
  9.8130798249121334 16.4544194800345451 18.3010646169888744   T   T   T
